Ba2BiVO6 cubic cell, ions relaxed by MACE-MP-0 from a rattle
 1.0000000000000000
     8.4873875381390391    0.0000000000000000    0.0000000000000000
     0.0000000000000000    8.4873875381390391    0.0000000000000000
     0.0000000000000000    0.0000000000000000    8.4873875381390391
 Ba  V   Bi  O  
   8   4   4  24
Direct
  0.2584456913441421  0.2525817102573408  0.2524947423892326
  0.7579373878113844  0.7531056348348976  0.7484978483017314
  0.7560459860192706  0.7509229361049582  0.2488035759544230
  0.2553993687998001  0.2522178373946817  0.7529267859260692
  0.7523368423212202  0.2442816214863919  0.7500286526795940
  0.2515058904059473  0.7469485447096765  0.2522449446758052
  0.2554226598300626  0.7461580835730957  0.7520279262986846
  0.7545910129849289  0.2477130955258565  0.2495367780112440
  0.5133985517238929  0.5028704098665232  0.4977493959143867
  0.0130697048416293  0.0031539940741141  0.5041856779569499
  0.0066515214188485  0.4914576035624955  0.0043172566158130
  0.5068686436984898 -0.0086963626520327 -0.0019374654363439
  0.0134938188559623 -0.0064182647198815  0.0073329867076679
  0.5132298166456885  0.4938227494816367 -0.0062552051218862
  0.5081006458844408  0.0084270442086685  0.4938155776634857
  0.0084776428172592  0.5081813562322270  0.5073732253475256
  0.2617345938332253  0.5344254106010274  0.4979908848284711
  0.7180921753145657  0.4549580837034171  0.5106102685338468
  0.4584686268318074  0.2591631983476382  0.5078912492954417
  0.5343246021960671  0.7130726177877581  0.5016721836803970
  0.5001054023898944  0.4880167850693171  0.2840444941587521
  0.4878408546085846  0.4960344983755862  0.7325516694107795
  0.7615614758905231  0.0344186463369683  0.4923511906605182
  0.2179151619610775 -0.0456324538333642  0.5024399358268282
 -0.0417588684866052  0.7589839147856844  0.4964333596252685
  0.0346417986310623  0.2131521403813108  0.4973918877899650
 -0.0001862493014366 -0.0077977209951357  0.2695380115165095
 -0.0113592951384354 -0.0076528907992154  0.7176234904592879
  0.7632131172156078  0.5468723572645663 -0.0100349335549104
  0.2170877683763680  0.4702943281502613  0.0045142807286494
 -0.0407432509056634  0.2858094742462862 -0.0056237858570160
  0.0399147014882603  0.7410925118872496 -0.0007339608297615
  0.0033137051741326  0.5106089241861369  0.7690786417691049
 -0.0132709670076756  0.5077039278148500  0.2174692084821075
  0.2634292330770879  0.0471291146071204  0.0018032003288677
  0.7172471119817357 -0.0290943554645489  0.0087264849951979
  0.4593708502740139  0.7858230297638071  0.0092477714311146
  0.5398056209183724  0.2412215102468273 -0.0004699549752001
  0.4977673814251594  0.0043397735562899  0.7843553649559938
  0.4912177500161772  0.0135977483626611  0.2329745721065020
