Ba2BiVO6 cell and ions relaxed by MACE-MP-0 from a rattle
 1.0000000000000000
    10.0124562717205396   -0.2102560256660891    0.1995417411469568
    -0.2019942402285663    9.6605087546533994   -0.2679894982460725
     0.2174739213997501   -0.2366743173751401    7.8273315774213774
 Ba  V   Bi  O  
   8   4   4  24
Direct
  0.2998589917993009  0.2815085319438459  0.2724614913538633
  0.8271778838558013  0.7486151017863817  0.7758159074084938
  0.7999112356521649  0.7815515596141132  0.2724512202524993
  0.3272111926828413  0.2486334172532293  0.7757902132500003
  0.7338320361215841  0.1966773479498675  0.7402683410410995
  0.1870413902420556  0.7475471969413345  0.2434321639119623
  0.2337996773391398  0.6966800780698218  0.7402636431779958
  0.6870114062333813  0.2474382398488676  0.2434068684469881
  0.5760591362635049  0.5240971998827151  0.5247240367870264
  0.0760750855311039  0.0241446807224715  0.5248373619047201
  0.0125541585638066  0.4457565890176336 -0.0127084208767493
  0.5125471438858825 -0.0542609253146230 -0.0127445153784051
  0.0221630653201326  0.0301443333921731  0.0183214581775571
  0.5222127857208629  0.5301100965989262  0.0183376223264666
  0.4989843862267187 -0.0128290415509117  0.4762140189782204
 -0.0010109650568256  0.4872453178017470  0.4761265651142719
  0.2052422306755395  0.5256674313959604  0.4471878423056854
  0.7124485458493217  0.4178096919768384  0.5453584014138700
  0.4719244378177515  0.1987685011936085  0.4943644942871867
  0.6368391543537892  0.6939285558668232  0.5268788808833984
  0.5162447288975835  0.4780604440073514  0.3186161914556650
  0.4578441842140812  0.5135387617612821  0.6984010649518367
  0.7052354015788087  0.0256382344371743  0.4472626211123851
  0.2124783784110645 -0.0821372337190414  0.5454453048443090
 -0.0280470178871466  0.6988481490924342  0.4944067792875522
  0.1368196024807907  0.1939893068124594  0.5270138826359382
  0.0162726647480467 -0.0218657373407462  0.3187420925620559
 -0.0421361712525093  0.0135457822785725  0.6985366389926769
  0.7134217649598079  0.6076446052523556  0.0174625784495418
  0.1846365719067312  0.4282365678923263 -0.0048793997928694
 -0.0871263668190990  0.2917376713714754 -0.0053314109006402
  0.0537494371649423  0.8149573642191559 -0.0239893850530333
 -0.0044245948354141  0.5235358569561300  0.7895012830174054
 -0.0261694905591847  0.5461350385276019  0.1752626328770726
  0.2133785592195193  0.1076456580604413  0.0174040610538148
  0.6846483744910761 -0.0716895898300859 -0.0049004741332360
  0.4129131095047634  0.7916898570041572 -0.0053542133552674
  0.5537995885631556  0.3149300176778475 -0.0240647894962821
  0.4955412449713853  0.0234773045975970  0.7894243277072449
  0.4737719716649392  0.0461109537045616  0.1751803515223011
