Ba2Bi(V0.5Ta0.5)O6 relaxed with MACE-MP-0 (from the cubic cell)
 1.0000000000000000
     8.6040217324201222   -0.0000000000000000    0.0000000000000000
     0.0000000000000000    8.6040217324189427   -0.0000000000001678
     0.0000000000000002   -0.0000000000003896    8.5938012519189080
 Ba  V   Ta  Bi  O  
   8   2   2   4  24
Direct
  0.2499999996391187  0.2499999996391639  0.2417555816218271
  0.7500000000796032  0.7500000000797404  0.7582444181549026
  0.7500000000796032  0.7500000000797170  0.2417555816218369
  0.2499999996391187  0.2499999996391873  0.7582444181548927
  0.7500000000796032  0.2499999996391873  0.7582444181548927
  0.2499999996391187  0.7500000000797170  0.2417555816218369
  0.2499999996391187  0.7500000000797404  0.7582444181549026
  0.7500000000796032  0.2499999996391639  0.2417555816218271
 -0.0000000000000000  0.5000000004405531  0.0000000000000098
  0.5000000004404845  0.0000000000000000 -0.0000000000000000
  0.5000000004404845  0.5000000004405757  0.5000000004701795
 -0.0000000000000000  0.0000000000000226  0.5000000004701698
 -0.0000000000000000  0.0000000000000000  0.0000000000000000
  0.5000000004404845  0.5000000004405531  0.0000000000000098
  0.5000000004404845  0.0000000000000226  0.5000000004701698
 -0.0000000000000000  0.5000000004405757  0.5000000004701795
  0.2684715069112530  0.5000000004405757  0.5000000004701795
  0.7315284928074689  0.5000000004405757  0.5000000004701795
  0.5000000004404845  0.2684715069113125  0.5000000004701750
  0.5000000004404845  0.7315284928075918  0.5000000004701840
  0.5000000004404845  0.5000000004405654  0.2679245403174714
  0.5000000004404845  0.5000000004405862  0.7320754594592583
  0.7684715073517375  0.0000000000000226  0.5000000004701698
  0.2315284923669844  0.0000000000000226  0.5000000004701698
 -0.0000000000000000  0.7684715073518655  0.5000000004701848
 -0.0000000000000000  0.2315284923670387  0.5000000004701743
 -0.0000000000000000  0.0000000000000121  0.2679245403174617
 -0.0000000000000000  0.0000000000000331  0.7320754594592486
  0.7727048148831163  0.5000000004405531  0.0000000000000098
  0.2272951848356057  0.5000000004405531  0.0000000000000098
 -0.0000000000000000  0.2727048156049162  0.0000000000000053
 -0.0000000000000000  0.7272951852761900  0.0000000000000142
 -0.0000000000000000  0.5000000004405882  0.7757114395113064
 -0.0000000000000000  0.5000000004405633  0.2242885602654233
  0.2727048156048789  0.0000000000000000 -0.0000000000000000
  0.7272951852760903  0.0000000000000000 -0.0000000000000000
  0.5000000004404845  0.7727048148832222  0.0000000000000151
  0.5000000004404845  0.2272951848356368  0.0000000000000044
  0.5000000004404845  0.0000000000000351  0.7757114395112966
  0.5000000004404845  0.0000000000000102  0.2242885602654135
