Ba V  Bi O 
 1.0000000000000000
     4.9798353799999999   -6.2256557299999997    0.0000000000000000
     4.9798353799999999    6.2256557299999997    0.0000000000000000
     0.0000000000000000    0.0000000000000000    5.8697127929999997
 Ba  V   Bi  O  
   4   2   2  12
Direct
  0.3030907145454233  0.0850526380968883  0.2672260220075132
  0.9149482896446227  0.6969102131960877  0.2672260220075132
  0.0850526380968883  0.3030907145454233  0.7672249322608381
  0.6969102131960876  0.9149482896446226  0.7672249322608381
  0.8070757476497383  0.1929251800917728  0.3095398470205866
  0.1929251800917726  0.8070757476497381  0.8095387572739114
  0.4192579651203467  0.5807429626211642  0.2417000712014224
  0.5807429626211642  0.4192579651203468  0.7416989814547473
  0.3725467934267384  0.3542724131953086  0.0020512076867472
  0.6457285145462024  0.6274541343147725  0.0020512076867472
  0.7908629976395478  0.2091379301019632  0.0168509096591500
  0.9418679745883776  0.0581329531531335  0.3951828789248905
  0.6099712473469145  0.1090987071301750  0.4360894800598466
  0.8909022206113359  0.3900296803945965  0.4360894800598466
  0.3542724131953086  0.3725467934267384  0.5020501179400720
  0.6274541343147725  0.6457285145462024  0.5020501179400720
  0.2091379301019631  0.7908629976395477  0.5168498199124749
  0.0581329531531335  0.9418679745883776  0.8951817891782154
  0.1090987071301749  0.6099712473469144  0.9360883903131716
  0.3900296803945964  0.8909022206113359  0.9360883903131716
