Ba2BiVO6 Fm-3m, VASP PBE+U (U_V 3.25 eV) relaxed
 1.0000000000000000
     0.0000000000000000    4.2436937690695196    4.2436937690695196
     4.2436937690695196    0.0000000000000000    4.2436937690695196
     4.2436937690695196    4.2436937690695196    0.0000000000000000
 Ba  V   Bi  O  
   2   1   1   6
Direct
  0.2500000000000000  0.2500000000000000  0.2500000000000000
  0.7500000000000000  0.7500000000000000  0.7500000000000000
  0.5000000000000000  0.5000000000000000  0.5000000000000000
  0.0000000000000000  0.0000000000000000 -0.0000000000000000
  0.7258100020151517  0.2741899979848482  0.2741899979848483
  0.2741899979848483  0.7258100020151517  0.7258100020151517
  0.2741899979848482  0.7258100020151517  0.2741899979848483
  0.7258100020151517  0.2741899979848483  0.7258100020151517
  0.2741899979848483  0.2741899979848483  0.7258100020151517
  0.7258100020151517  0.7258100020151517  0.2741899979848483
