Ba2Bi(V0.25Ta0.75)O6 relaxed with MACE-MP-0 (from the cubic cell)
 1.0000000000000000
     8.6468992328148282   -0.0000000000000000   -0.0000000000000000
    -0.0000000000000001    8.6468992328141994   -0.0000000000002564
     0.0000000000000000   -0.0000000000001940    8.6468992328150787
 Ba  V   Ta  Bi  O  
   8   1   3   4  24
Direct
  0.2547310001764616  0.2452690002390384  0.2452690002390153
  0.7452689994980080  0.7547310005920103  0.7547310005919390
  0.7452689994980080  0.7547310005919988  0.2452690002390304
  0.2547310001764616  0.2452690002390499  0.7547310005919239
  0.7452689994980080  0.2452690002390499  0.7547310005919239
  0.2547310001764616  0.7547310005919988  0.2452690002390304
  0.2547310001764616  0.7547310005920103  0.7547310005919390
  0.7452689994980080  0.2452690002390384  0.2452690002390153
  0.5000000004154768  0.0000000000000000  0.0000000000000000
  0.5000000004154768  0.5000000004155243  0.5000000004154771
 -0.0000000000000000  0.0000000000000112  0.5000000004154623
  0.0000000000000000  0.5000000004155131  0.0000000000000148
  0.0000000000000000  0.0000000000000000  0.0000000000000000
  0.5000000004154768  0.5000000004155131  0.0000000000000148
  0.5000000004154768  0.0000000000000112  0.5000000004154623
  0.0000000000000000  0.5000000004155243  0.5000000004154771
  0.2695013816231787  0.5000000004155243  0.5000000004154771
  0.7304986192077749  0.5000000004155243  0.5000000004154771
  0.5000000004154768  0.2687881456025333  0.5000000004154703
  0.5000000004154768  0.7312118552285153  0.5000000004154840
  0.5000000004154768  0.5000000004155192  0.2687881456025097
  0.5000000004154768  0.5000000004155295  0.7312118552284446
  0.7687881448614954  0.0000000000000112  0.5000000004154623
  0.2312118548129742  0.0000000000000112  0.5000000004154623
  0.0000000000000000  0.7695013808822387  0.5000000004154851
  0.0000000000000000  0.2304986187923261  0.5000000004154692
 -0.0000000000000000  0.0000000000000060  0.2687881456024948
 -0.0000000000000000  0.0000000000000164  0.7312118552284298
  0.7687881448614954  0.5000000004155131  0.0000000000000148
  0.2312118548129742  0.5000000004155131  0.0000000000000148
  0.0000000000000000  0.2687881456025221  0.0000000000000080
  0.0000000000000000  0.7312118552285041  0.0000000000000217
  0.0000000000000000  0.5000000004155304  0.7695013808821640
  0.0000000000000000  0.5000000004155183  0.2304986187923062
  0.2729658050185984  0.0000000000000000  0.0000000000000000
  0.7270341946558713  0.0000000000000000  0.0000000000000000
  0.5000000004154768  0.7729658054341313  0.0000000000000229
  0.5000000004154768  0.2270341942404110  0.0000000000000067
  0.5000000004154768  0.0000000000000173  0.7729658054340527
  0.5000000004154768  0.0000000000000051  0.2270341942403880
