Ba V  Bi O 
 1.0000000000000000
     8.4806370199999996   -0.0000000000000000    0.0000000000000000
    -0.0000000000000000    8.4806370199999996    0.0000000000000000
    -0.0000000000000000    0.0000000000000000    8.4806370199999996
 Ba  V   Bi  O  
   8   4   4  24
Direct
  0.5000000000000000  0.5000000000000000  0.5000000000000000
  0.0000000000000000  0.0000000000000000  0.0000000000000000
  0.0000000000000000  0.0000000000000000  0.5000000000000000
  0.0000000000000000  0.5000000000000000  0.0000000000000000
  0.5000000000000000  0.0000000000000000  0.0000000000000000
  0.5000000000000000  0.5000000000000000  0.0000000000000000
  0.5000000000000000  0.0000000000000000  0.5000000000000000
  0.0000000000000000  0.5000000000000000  0.5000000000000000
  0.2500000000000000  0.2500000000000000  0.2500000000000000
  0.2500000000000000  0.7500000000000000  0.7500000000000000
  0.7500000000000000  0.2500000000000000  0.7500000000000000
  0.7500000000000000  0.7500000000000000  0.2500000000000000
  0.7500000000000000  0.7500000000000000  0.7500000000000000
  0.7500000000000000  0.2500000000000000  0.2500000000000000
  0.2500000000000000  0.7500000000000000  0.2500000000000000
  0.2500000000000000  0.2500000000000000  0.7500000000000000
  0.2332578000000000  0.2681497300000000  0.4754761599999999
  0.2332578000000000  0.7318502700000000  0.5245238400000000
  0.7667422000000000  0.2681497300000000  0.5245238400000000
  0.7667422000000000  0.7318502700000000  0.4754761599999999
  0.2681497300000000  0.4754761599999999  0.2332578000000000
  0.7318502700000000  0.5245238400000000  0.2332578000000000
  0.2681497300000000  0.5245238400000000  0.7667422000000000
  0.7318502700000000  0.4754761599999999  0.7667422000000000
  0.4754761599999999  0.2332578000000000  0.2681497300000000
  0.5245238400000000  0.2332578000000000  0.7318502700000000
  0.5245238400000000  0.7667422000000000  0.2681497300000000
  0.4754761599999999  0.7667422000000000  0.7318502700000000
  0.2667422000000000  0.2318502700000000  0.0245238400000000
  0.2667422000000000  0.7681497300000000  0.9754761600000000
  0.7332578000000000  0.2318502700000000  0.9754761600000000
  0.7332578000000000  0.7681497300000000  0.0245238400000000
  0.2318502700000000  0.0245238400000000  0.2667422000000000
  0.7681497300000000  0.9754761600000000  0.2667422000000000
  0.2318502700000000  0.9754761600000000  0.7332578000000000
  0.7681497300000000  0.0245238400000000  0.7332578000000000
  0.0245238400000000  0.2667422000000000  0.2318502700000000
  0.9754761600000000  0.2667422000000000  0.7681497300000000
  0.9754761600000000  0.7332578000000000  0.2318502700000000
  0.0245238400000000  0.7332578000000000  0.7681497300000000
