Ba V  Bi O 
 1.0000000000000000
     5.9903803699999996   -0.0033269200000000   -0.0076654900000000
    -2.9966786100000000    5.1873042800000002    0.0071894100000000
    -2.9693732700000002   -1.7422325400000001    4.9191431400000001
 Ba  V   Bi  O  
   2   1   1   6
Direct
  0.4987029900000001  0.2493440800000000  0.7479201800000002
  0.5014599299999999  0.7508496099999999  0.2522050000000000
  0.0001722600000000  0.5001735300000000  0.5001389899999999
  0.0001854300000000  0.0002304500000000  0.0001584100000000
  0.9977127500000001  0.2535823200000001  0.7049964900000001
  0.0021676000000000  0.7462603100000000  0.2949367100000000
  0.4513056000000000  0.7068849400000000  0.7043455600000001
  0.9616140099999999  0.2741114500000000  0.2367641500000000
  0.5484144000000000  0.2929036100000000  0.2954638600000000
  0.0382650500000001  0.7256586900000001  0.7630706500000001
