Ba2Bi(V0.5Nb0.5)O6 relaxed with MACE-MP-0 (from the cubic cell)
 1.0000000000000000
     8.6092896568216624    0.0000000000000000    0.0000000000000000
     0.0000000000000001    8.6092896568249717    0.0000000000004841
    -0.0000000000000003    0.0000000000003595    8.5994374244880039
 Ba  V   Nb  Bi  O  
   8   2   2   4  24
Direct
  0.2499999995115258  0.2499999995114196  0.2416531358298248
  0.7499999996961134  0.7499999996957936  0.7583468636482238
  0.7499999996961134  0.7499999996958151  0.2416531358297967
  0.2499999995115259  0.2499999995113981  0.7583468636482520
  0.7499999996961134  0.2499999995113981  0.7583468636482520
  0.2499999995115258  0.7499999996958151  0.2416531358297967
  0.2499999995115259  0.7499999996957936  0.7583468636482238
  0.7499999996961134  0.2499999995114196  0.2416531358298248
 -0.0000000000000000  0.5000000001843955 -0.0000000000000281
  0.5000000001845877 -0.0000000000000000 -0.0000000000000000
  0.5000000001845877  0.5000000001843746  0.4999999997390243
  0.0000000000000000 -0.0000000000000209  0.4999999997390525
 -0.0000000000000000  0.0000000000000000 -0.0000000000000000
  0.5000000001845877  0.5000000001843955 -0.0000000000000281
  0.5000000001845877 -0.0000000000000209  0.4999999997390525
  0.0000000000000000  0.5000000001843746  0.4999999997390243
  0.2671779312451640  0.5000000001843746  0.4999999997390243
  0.7328220679624753  0.5000000001843746  0.4999999997390243
  0.5000000001845877  0.2671779312450404  0.4999999997390374
  0.5000000001845877  0.7328220679621728  0.4999999997390112
  0.5000000001845877  0.5000000001843843  0.2665986723121315
  0.5000000001845877  0.5000000001843649  0.7334013271659171
  0.7671779314297517 -0.0000000000000209  0.4999999997390525
  0.2328220689394236 -0.0000000000000209  0.4999999997390525
  0.0000000000000000  0.7671779314294359  0.4999999997390093
  0.0000000000000000  0.2328220689393133  0.4999999997390393
  0.0000000000000000 -0.0000000000000111  0.2665986723121597
  0.0000000000000000 -0.0000000000000306  0.7334013271659453
  0.7726511181708510  0.5000000001843955 -0.0000000000000281
  0.2273488810367883  0.5000000001843955 -0.0000000000000281
 -0.0000000000000000  0.2726511191476946 -0.0000000000000153
 -0.0000000000000000  0.7273488812210964 -0.0000000000000409
  0.0000000000000000  0.5000000001843631  0.7755128109902861
  0.0000000000000000  0.5000000001843861  0.2244871884877626
  0.2726511191477994 -0.0000000000000000 -0.0000000000000000
  0.7273488812213760 -0.0000000000000000 -0.0000000000000000
  0.5000000001845877  0.7726511181705540 -0.0000000000000435
  0.5000000001845877  0.2273488810367009 -0.0000000000000128
  0.5000000001845877 -0.0000000000000324  0.7755128109903143
  0.5000000001845877 -0.0000000000000094  0.2244871884877907
