Ba2Bi(V0.25Nb0.75)O6 relaxed with MACE-MP-0 (from the cubic cell)
 1.0000000000000000
     8.6553172729535106   -0.0000000000000000    0.0000000000000000
    -0.0000000000000000    8.6553172729532459   -0.0000000000003766
     0.0000000000000000   -0.0000000000002822    8.6553172729532637
 Ba  V   Nb  Bi  O  
   8   1   3   4  24
Direct
  0.2548576545995610  0.2451423446521567  0.2451423446521588
  0.7451423450592025  0.7548576550066699  0.7548576550066767
  0.7451423450592025  0.7548576550066534  0.2451423446521810
  0.2548576545995610  0.2451423446521733  0.7548576550066545
  0.7451423450592025  0.2451423446521733  0.7548576550066545
  0.2548576545995610  0.7548576550066534  0.2451423446521810
  0.2548576545995610  0.7548576550066699  0.7548576550066767
  0.7451423450592025  0.2451423446521567  0.2451423446521588
  0.5000000004070614  0.0000000000000000 -0.0000000000000000
  0.5000000004070614  0.5000000004070929  0.5000000004070974
 -0.0000000000000000  0.0000000000000163  0.5000000004070756
  0.0000000000000000  0.5000000004070766  0.0000000000000218
  0.0000000000000000  0.0000000000000000 -0.0000000000000000
  0.5000000004070614  0.5000000004070766  0.0000000000000218
  0.5000000004070614  0.0000000000000163  0.5000000004070756
 -0.0000000000000000  0.5000000004070929  0.5000000004070974
  0.2682057707178481  0.5000000004070929  0.5000000004070974
  0.7317942300962744  0.5000000004070929  0.5000000004070974
  0.5000000004070614  0.2674416265748650  0.5000000004070871
  0.5000000004070614  0.7325583730839615  0.5000000004071075
  0.5000000004070614  0.5000000004070854  0.2674416265748699
  0.5000000004070614  0.5000000004071005  0.7325583730839655
  0.7674416269819019  0.0000000000000163  0.5000000004070756
  0.2325583726768616  0.0000000000000163  0.5000000004070756
 -0.0000000000000000  0.7682057699695900  0.5000000004071090
 -0.0000000000000000  0.2317942296892365  0.5000000004070856
 -0.0000000000000000  0.0000000000000087  0.2674416265748482
 -0.0000000000000000  0.0000000000000239  0.7325583730839438
  0.7674416269819019  0.5000000004070766  0.0000000000000218
  0.2325583726768616  0.5000000004070766  0.0000000000000218
  0.0000000000000000  0.2674416265748487  0.0000000000000116
  0.0000000000000000  0.7325583730839452  0.0000000000000319
 -0.0000000000000000  0.5000000004071016  0.7682057699695939
 -0.0000000000000000  0.5000000004070841  0.2317942296892415
  0.2728489349985593  0.0000000000000000 -0.0000000000000000
  0.7271510646602042  0.0000000000000000 -0.0000000000000000
  0.5000000004070614  0.7728489354056441  0.0000000000000336
  0.5000000004070614  0.2271510642531498  0.0000000000000099
  0.5000000004070614  0.0000000000000252  0.7728489354056426
  0.5000000004070614  0.0000000000000074  0.2271510642531493
