Ba V  Bi O                              
   1.00000000000000     
     9.0713429985498948    0.0922878525832768   -0.0853082671356092
     0.0894617079924044    8.3425979448945942   -0.0211790557084410
    -0.0859765471471625   -0.0227520713426553    8.4387672477926330
   Ba   V    Bi   O 
     8     4     4    24
Direct
     0.2354855797750205    0.2575037835994259    0.2537803608762813
     0.7323950407243975    0.7511769076547907    0.7608275290540873
     0.7355993137144188    0.7576384329542013    0.2537501969613092
     0.2324528827041928    0.2511420146834125    0.7608633039883064
     0.7354341744662648    0.2576245671776245    0.7537641686082088
     0.2323696937652436    0.7511229254435704    0.2608002664484625
     0.2354122201422994    0.7575574526493217    0.7537180075597496
     0.7323206237606320    0.2511520465717250    0.2609003767687030
     0.4783148863624828    0.4986475578740059    0.5066608495985230
     0.9783734507226175    0.9986281034842990    0.5065438548062566
     0.9783690471734868    0.4986354123181060    0.0065369820283060
     0.4783831790182705    0.9986642532481104    0.0065906023462996
     0.9856662815960726    0.0011284313307151    0.0074991126443421
     0.4856604168692223    0.5011309374052308    0.0075752247858292
     0.4856881033445846    0.0010548593938527    0.5075137604536387
     0.9856885710780716    0.5010931849248762    0.5074783775356799
     0.2862078103788164    0.4832681992471485    0.5252408140101767
     0.7556596488635741    0.5197121933177489    0.4737523675002448
     0.5323811961860105    0.2772287020092454    0.5090337139802351
     0.4894287912339511    0.7179648653863752    0.4683841294522714
     0.4772211720276382    0.4715135934289837    0.2702326405352336
     0.5311753085380552    0.5182403160893864    0.7151515115079056
     0.7862328704748152    0.9832197455936372    0.5249772014489117
     0.2556585735919945    0.0196744199036151    0.4738209843090084
     0.0324063117499589    0.7771780710083485    0.5088911040399402
     0.9894102145930381    0.2179453444653360    0.4682650822255204
     0.9774956436258947    0.9715094545443191    0.2700940685254759
     0.0311140274381876    0.0181773398872645    0.7149920712441490
     0.7862686629228129    0.4830413604198053    0.0250067068712786
     0.2556566677081621    0.5200101927207923    0.9737867698081787
     0.0326874008049216    0.2773048759404593    0.0088241256406856
     0.9891692413617226    0.7180952440175727    0.9684064899785879
     0.9774553143897390    0.4717275942810794    0.7700893452768114
     0.0311162079380396    0.5181812883653981    0.2149731821942120
     0.2862747931079877    0.9831579513236002    0.0250687339991669
     0.7556360070005236    0.0199979893091854    0.9738887067506566
     0.5326970539276397    0.7773462319344422    0.0089929276767131
     0.4893159393506902    0.2181137760945846    0.9683837701684016
     0.4774301933739092    0.9716784703825720    0.7701345970913759
     0.5310352036006383    0.0182859042532968    0.2150503521606099
 
  0.00000000E+00  0.00000000E+00  0.00000000E+00
  0.00000000E+00  0.00000000E+00  0.00000000E+00
  0.00000000E+00  0.00000000E+00  0.00000000E+00
  0.00000000E+00  0.00000000E+00  0.00000000E+00
  0.00000000E+00  0.00000000E+00  0.00000000E+00
  0.00000000E+00  0.00000000E+00  0.00000000E+00
  0.00000000E+00  0.00000000E+00  0.00000000E+00
  0.00000000E+00  0.00000000E+00  0.00000000E+00
  0.00000000E+00  0.00000000E+00  0.00000000E+00
  0.00000000E+00  0.00000000E+00  0.00000000E+00
  0.00000000E+00  0.00000000E+00  0.00000000E+00
  0.00000000E+00  0.00000000E+00  0.00000000E+00
  0.00000000E+00  0.00000000E+00  0.00000000E+00
  0.00000000E+00  0.00000000E+00  0.00000000E+00
  0.00000000E+00  0.00000000E+00  0.00000000E+00
  0.00000000E+00  0.00000000E+00  0.00000000E+00
  0.00000000E+00  0.00000000E+00  0.00000000E+00
  0.00000000E+00  0.00000000E+00  0.00000000E+00
  0.00000000E+00  0.00000000E+00  0.00000000E+00
  0.00000000E+00  0.00000000E+00  0.00000000E+00
  0.00000000E+00  0.00000000E+00  0.00000000E+00
  0.00000000E+00  0.00000000E+00  0.00000000E+00
  0.00000000E+00  0.00000000E+00  0.00000000E+00
  0.00000000E+00  0.00000000E+00  0.00000000E+00
  0.00000000E+00  0.00000000E+00  0.00000000E+00
  0.00000000E+00  0.00000000E+00  0.00000000E+00
  0.00000000E+00  0.00000000E+00  0.00000000E+00
  0.00000000E+00  0.00000000E+00  0.00000000E+00
  0.00000000E+00  0.00000000E+00  0.00000000E+00
  0.00000000E+00  0.00000000E+00  0.00000000E+00
  0.00000000E+00  0.00000000E+00  0.00000000E+00
  0.00000000E+00  0.00000000E+00  0.00000000E+00
  0.00000000E+00  0.00000000E+00  0.00000000E+00
  0.00000000E+00  0.00000000E+00  0.00000000E+00
  0.00000000E+00  0.00000000E+00  0.00000000E+00
  0.00000000E+00  0.00000000E+00  0.00000000E+00
  0.00000000E+00  0.00000000E+00  0.00000000E+00
  0.00000000E+00  0.00000000E+00  0.00000000E+00
  0.00000000E+00  0.00000000E+00  0.00000000E+00
  0.00000000E+00  0.00000000E+00  0.00000000E+00
