Ba V  Bi O                              
   1.00000000000000     
     8.4873875381390391    0.0000000000000000    0.0000000000000000
     0.0000000000000000    8.4873875381390391    0.0000000000000000
     0.0000000000000000    0.0000000000000000    8.4873875381390391
   Ba   V    Bi   O 
     8     4     4    24
Direct
     0.2436067112407562    0.2560476184413263    0.2557043202735421
     0.7430970670695677    0.7570932591580869    0.7565522083974644
     0.7435291125907809    0.7559633040218928    0.2556065408033357
     0.2428992298159456    0.2570244978409056    0.7565114510847994
     0.7434409993509451    0.2557856084660702    0.7555484851817920
     0.2430510070599881    0.7567196555998511    0.2568382968207921
     0.2434945267461347    0.7562011689230569    0.7556288756350911
     0.7429945378112763    0.2564893528338946    0.2566709495934461
     0.4943007446476995    0.5057150877987657    0.5054785679389449
     0.9942887025957677    0.0058100048184716    0.5055754237975059
     0.9943428567707165    0.5056586060229773    0.0054221067816646
     0.4942281466782456    0.0053238323428830    0.0054545439244429
     0.9915341404818964    0.0080948863952495    0.0078534797520633
     0.4915843564490833    0.5078819165997415    0.0077175950793510
     0.4914455192122680    0.0081308416599388    0.5077715669818316
     0.9912841758406210    0.5080115309418720    0.5077569952612419
     0.2809708656412695    0.4803581017332606    0.5150561386241960
     0.7320100560478916    0.5109949658245053    0.4745292769514541
     0.5207973989533221    0.2684404773885794    0.5106110441352627
     0.4883708853394892    0.7193699979105442    0.4784405008572318
     0.4850978870606844    0.4789619591679157    0.2672835219791144
     0.5243469141754608    0.5124374739809924    0.7182252558455543
     0.7808605525540111    0.9808566071697246    0.5150992225591464
     0.2320260577356030    0.0109070868657083    0.4749503990523535
     0.0204771225269475    0.7687411683410548    0.5112634224297208
     0.9885246394471701    0.2196697517567750    0.4780668940226718
     0.9851832408770989    0.9786808365541706    0.2674068734912011
     0.0239927053778427    0.0132375990211595    0.7183739191442804
     0.7812374575047621    0.4793152150947395    0.0152761357942447
     0.2322807076216080    0.5115744801775991    0.9744906042854831
     0.0217732785979139    0.2682167673089712    0.0110587365380266
     0.9876634143334341    0.7191937623018778    0.9779528610257163
     0.9851345847877050    0.4782656597533397    0.7671964258543162
     0.0245893980787191    0.5130257694549386    0.2181189974917998
     0.2811250827338580    0.9787029354449829    0.0149436923532499
     0.7322363871925145    0.0116344124999185    0.9749448860643852
     0.5219469503269384    0.7681616522004272    0.0107380335057317
     0.4874389786725901    0.2189520206867305    0.9784237944071058
     0.4854829577888780    0.9784930730358374    0.7673687265756926
     0.5240583616685960    0.0123310490987241    0.2183336005644851
 
  0.00000000E+00  0.00000000E+00  0.00000000E+00
  0.00000000E+00  0.00000000E+00  0.00000000E+00
  0.00000000E+00  0.00000000E+00  0.00000000E+00
  0.00000000E+00  0.00000000E+00  0.00000000E+00
  0.00000000E+00  0.00000000E+00  0.00000000E+00
  0.00000000E+00  0.00000000E+00  0.00000000E+00
  0.00000000E+00  0.00000000E+00  0.00000000E+00
  0.00000000E+00  0.00000000E+00  0.00000000E+00
  0.00000000E+00  0.00000000E+00  0.00000000E+00
  0.00000000E+00  0.00000000E+00  0.00000000E+00
  0.00000000E+00  0.00000000E+00  0.00000000E+00
  0.00000000E+00  0.00000000E+00  0.00000000E+00
  0.00000000E+00  0.00000000E+00  0.00000000E+00
  0.00000000E+00  0.00000000E+00  0.00000000E+00
  0.00000000E+00  0.00000000E+00  0.00000000E+00
  0.00000000E+00  0.00000000E+00  0.00000000E+00
  0.00000000E+00  0.00000000E+00  0.00000000E+00
  0.00000000E+00  0.00000000E+00  0.00000000E+00
  0.00000000E+00  0.00000000E+00  0.00000000E+00
  0.00000000E+00  0.00000000E+00  0.00000000E+00
  0.00000000E+00  0.00000000E+00  0.00000000E+00
  0.00000000E+00  0.00000000E+00  0.00000000E+00
  0.00000000E+00  0.00000000E+00  0.00000000E+00
  0.00000000E+00  0.00000000E+00  0.00000000E+00
  0.00000000E+00  0.00000000E+00  0.00000000E+00
  0.00000000E+00  0.00000000E+00  0.00000000E+00
  0.00000000E+00  0.00000000E+00  0.00000000E+00
  0.00000000E+00  0.00000000E+00  0.00000000E+00
  0.00000000E+00  0.00000000E+00  0.00000000E+00
  0.00000000E+00  0.00000000E+00  0.00000000E+00
  0.00000000E+00  0.00000000E+00  0.00000000E+00
  0.00000000E+00  0.00000000E+00  0.00000000E+00
  0.00000000E+00  0.00000000E+00  0.00000000E+00
  0.00000000E+00  0.00000000E+00  0.00000000E+00
  0.00000000E+00  0.00000000E+00  0.00000000E+00
  0.00000000E+00  0.00000000E+00  0.00000000E+00
  0.00000000E+00  0.00000000E+00  0.00000000E+00
  0.00000000E+00  0.00000000E+00  0.00000000E+00
  0.00000000E+00  0.00000000E+00  0.00000000E+00
  0.00000000E+00  0.00000000E+00  0.00000000E+00
