Ba2BiVO6 2x2x2 primitive cell with one V -> Nb, MACE-MP-0
 1.0000000000000000
     0.0000000000000000    8.5020973659135546    8.5020973659135475
     8.5020973659135350    0.0000000000000000    8.5020973659135350
     8.5020973659135386    8.5020973659135528    0.0000000000000000
 Ba  V   Nb  Bi  O  
  16   7   1   8  48
Direct
  0.1232096369773155  0.1232096369773160  0.1232096369773156
  0.3767903626749140  0.3767903626749154  0.3767903626749143
  0.1232096369773151  0.1232096369773164  0.6303710883725132
  0.3767903626749137  0.3767903626749160  0.8696289117603574
  0.1232096369773156  0.6303710883725142  0.1232096369773156
  0.3767903626749140  0.8696289117603593  0.3767903626749143
  0.1249751072317699  0.6250082975177780  0.6250082975177769
  0.3750248924204587  0.8749917026150962  0.8749917026150938
  0.6303710883725128  0.1232096369773163  0.1232096369773154
  0.8696289117603568  0.3767903626749156  0.3767903626749141
  0.6250082975177758  0.1249751072317714  0.6250082975177766
  0.8749917026150928  0.3750248924204609  0.8749917026150938
  0.6250082975177763  0.6250082975177780  0.1249751072317704
  0.8749917026150932  0.8749917026150958  0.3750248924204592
  0.6250082975177758  0.6250082975177782  0.6250082975177766
  0.8749917026150930  0.8749917026150964  0.8749917026150936
  0.2499999998261143  0.2499999998261161  0.7500000006545254
  0.2499999998261147  0.7500000006545268  0.2499999998261150
  0.2500000004142044  0.7500000000664371  0.7500000000664353
  0.7500000006545249  0.2499999998261159  0.2499999998261148
  0.7500000000664344  0.2500000004142065  0.7500000000664351
  0.7500000000664347  0.7500000000664369  0.2500000004142049
  0.7500000000664344  0.7500000000664373  0.7500000000664351
  0.2499999998261147  0.2499999998261157  0.2499999998261150
 -0.0000000000000000  0.0000000000000000  0.0000000000000000
 -0.0012288332572960 -0.0012288332572952  0.5012288329095258
 -0.0012288332572956  0.5012288329095264 -0.0012288332572956
 -0.0012288332572960  0.5012288329095268  0.5012288329095258
  0.5012288329095256 -0.0012288332572954 -0.0012288332572958
  0.5012288329095250 -0.0012288332572949  0.5012288329095256
  0.5012288329095255  0.5012288329095266 -0.0012288332572958
  0.5000000002403197  0.5000000002403215  0.5000000002403201
  0.3677264033148440  0.1322735963373863  0.1322735963373857
  0.1322735963373855  0.3677264033148451  0.3677264033148443
  0.1322735963373857  0.3677264033148450  0.1322735963373858
  0.3677264033148437  0.1322735963373864  0.3677264033148443
  0.1322735963373855  0.1322735963373864  0.3677264033148443
  0.3677264033148440  0.3677264033148451  0.1322735963373857
  0.3634021209151382  0.1365978787370918  0.6369524814796230
  0.1365978787370904  0.3634021209151405  0.8630475186532477
  0.1365978787370905  0.3634021209151401  0.6369524814796230
  0.3634021209151382  0.1365978787370921  0.8630475186532477
  0.1362735393557213  0.1362735393557230  0.8637264611249186
  0.3637264608845976  0.3637264608845995  0.6362735395960422
  0.3634021209151388  0.6369524814796242  0.1365978787370909
  0.1365978787370907  0.8630475186532492  0.3634021209151391
  0.1362735393557218  0.8637264611249199  0.1362735393557220
  0.3637264608845978  0.6362735395960436  0.3637264608845983
  0.1365978787370908  0.6369524814796244  0.3634021209151390
  0.3634021209151388  0.8630475186532492  0.1365978787370909
  0.3637264614726877  0.6362735390079536  0.6362735390079520
  0.1362735399438115  0.8637264605368306  0.8637264605368283
  0.1365978787370905  0.8630475186532495  0.6369524814796230
  0.3634021209151383  0.6369524814796249  0.8630475186532476
  0.1365978787370904  0.6369524814796247  0.8630475186532477
  0.3634021209151383  0.8630475186532496  0.6369524814796229
  0.8637264611249180  0.1362735393557226  0.1362735393557217
  0.6362735395960415  0.3637264608845993  0.3637264608845981
  0.6369524814796225  0.3634021209151399  0.1365978787370909
  0.8630475186532471  0.1365978787370919  0.3634021209151388
  0.6369524814796224  0.1365978787370918  0.3634021209151388
  0.8630475186532471  0.3634021209151401  0.1365978787370907
  0.8630475186532467  0.1365978787370921  0.6369524814796228
  0.6369524814796219  0.3634021209151406  0.8630475186532476
  0.6362735390079511  0.3637264614726897  0.6362735390079519
  0.8637264605368271  0.1362735399438133  0.8637264605368283
  0.6369524814796219  0.1365978787370921  0.8630475186532477
  0.8630475186532468  0.3634021209151405  0.6369524814796227
  0.8630475186532471  0.6369524814796244  0.1365978787370907
  0.6369524814796222  0.8630475186532495  0.3634021209151389
  0.6369524814796225  0.8630475186532492  0.1365978787370909
  0.8630475186532469  0.6369524814796244  0.3634021209151389
  0.6362735390079515  0.6362735390079536  0.3637264614726883
  0.8637264605368279  0.8637264605368300  0.1362735399438118
  0.8626418269925247  0.6373581731403472  0.6373581731403448
  0.6373581731403442  0.8626418269925276  0.8626418269925253
  0.6373581731403445  0.8626418269925274  0.6373581731403450
  0.8626418269925241  0.6373581731403470  0.8626418269925253
  0.6373581731403443  0.6373581731403472  0.8626418269925252
  0.8626418269925246  0.8626418269925276  0.6373581731403449
