Ba2BiVO6 relaxed with MACE-MP-0 (cubic)
 1.0000000000000000
     8.5020846125395586   -0.0000000000000000    0.0000000000000000
     0.0000000000000000    8.5020846125398766   -0.0000000000002765
     0.0000000000000001   -0.0000000000002084    8.5020846125395746
 Ba  V   Bi  O  
   8   4   4  24
Direct
  0.2499999996312799  0.2499999996312766  0.2499999996312876
  0.7500000000700218  0.7500000000700121  0.7500000000700447
  0.7500000000700218  0.7500000000699999  0.2499999996313038
  0.2499999996312799  0.2499999996312889  0.7500000000700285
  0.7500000000700218  0.2499999996312889  0.7500000000700285
  0.2499999996312799  0.7500000000699999  0.2499999996313038
  0.2499999996312799  0.7500000000700121  0.7500000000700447
  0.7500000000700218  0.2499999996312766  0.2499999996312876
  0.5000000004387419  0.5000000004387354  0.5000000004387573
 -0.0000000000000000  0.0000000000000123  0.5000000004387409
 -0.0000000000000000  0.5000000004387232  0.0000000000000163
  0.5000000004387419  0.0000000000000000 -0.0000000000000000
  0.0000000000000000 -0.0000000000000000 -0.0000000000000000
  0.5000000004387419  0.5000000004387232  0.0000000000000163
  0.5000000004387419  0.0000000000000123  0.5000000004387409
 -0.0000000000000000  0.5000000004387354  0.5000000004387573
  0.2732672768950510  0.5000000004387354  0.5000000004387573
  0.7267327228062507  0.5000000004387354  0.5000000004387573
  0.5000000004387419  0.2732672768950531  0.5000000004387498
  0.5000000004387419  0.7267327228062357  0.5000000004387646
  0.5000000004387419  0.5000000004387298  0.2732672768950667
  0.5000000004387419  0.5000000004387409  0.7267327228062657
  0.7732672773337930  0.0000000000000123  0.5000000004387409
  0.2267327235436909  0.0000000000000123  0.5000000004387409
 -0.0000000000000000  0.7732672773337763  0.5000000004387661
 -0.0000000000000000  0.2267327235436947  0.5000000004387484
 -0.0000000000000000  0.0000000000000067  0.2732672768950505
 -0.0000000000000000  0.0000000000000178  0.7267327228062493
  0.7732672773337930  0.5000000004387232  0.0000000000000163
  0.2267327235436909  0.5000000004387232  0.0000000000000163
 -0.0000000000000000  0.2732672768950408  0.0000000000000089
 -0.0000000000000000  0.7267327228062235  0.0000000000000236
 -0.0000000000000000  0.5000000004387422  0.7732672773338078
 -0.0000000000000000  0.5000000004387287  0.2267327235437067
  0.2732672768950510  0.0000000000000000 -0.0000000000000000
  0.7267327228062507  0.0000000000000000 -0.0000000000000000
  0.5000000004387419  0.7732672773337641  0.0000000000000251
  0.5000000004387419  0.2267327235436824  0.0000000000000074
  0.5000000004387419  0.0000000000000189  0.7732672773337915
  0.5000000004387419  0.0000000000000056  0.2267327235436905
