192
Lattice="12.416 0.0 0.0 0.0 12.416 0.0 0.0 0.0 12.416" Properties=species:S:1:pos:R:3 pbc="T T T"
O        1.45833240       1.56414078       1.47918238
H        1.77511435       2.18487114       2.15183474
H        2.07822489       0.82200284       1.53470504
O        1.47436164       1.60915993       4.72620294
H        2.34690683       1.91039337       4.43287463
H        1.37819872       0.73632818       4.31750302
O        1.56011139       1.52002488       7.64539101
H        2.11886871       1.23736245       8.38431617
H        0.92024029       2.12243800       8.05255386
O        1.63473270       1.55717143      10.94974369
H        0.95905013       2.21625504      10.73253401
H        1.48308963       0.84637364      10.30951789
O        1.50999334       4.64456531       1.66303204
H        2.21220754       5.23300983       1.34879252
H        1.22784503       4.17046748       0.86695304
O        1.54336990       4.63732725       4.77347457
H        1.55157631       5.48407036       4.30328636
H        1.62146434       3.97731135       4.06891906
O        1.58869285       4.76352417       7.79627138
H        0.94642761       4.17736878       8.22292747
H        1.86403021       4.27443970       7.00690207
O        1.65007848       4.71047972      10.82355255
H        0.80771676       5.11303008      11.08142488
H        1.51165703       3.76313305      10.97015401
O        1.59690221       7.69563654       1.64180290
H        1.13847539       8.54750166       1.68964498
H        1.60630768       7.48740491       0.69593329
O        1.54081064       7.85820505       4.72273822
H        1.48277485       6.93415456       5.00713360
H        1.71073985       7.80020665       3.77096176
O        1.57676211       7.84669758       7.68193725
H        2.19934324       7.28322401       8.16464675
H        0.70656033       7.54319684       7.97985395
O        1.57494861       7.86940419      10.90556332
H        0.97548627       7.20459705      11.27542082
H        1.94492526       7.44017129      10.12007329
O        1.55601064      10.81851055       1.66217282
H        1.80573051      11.70930061       1.37537802
H        1.26618444      10.38261424       0.84724130
O        1.62774454      10.89284994       4.74348640
H        1.30768864      11.45474023       4.02240269
H        1.19035632      10.04246073       4.58970756
O        1.47744414      10.92574625       7.69034191
H        1.42373029      10.78918491       8.64772586
H        2.27671531      10.44484611       7.42953768
O        1.63357601      10.86008170      10.77708955
H        0.71386279      11.15813003      10.71866884
H        1.73753053      10.60121629      11.70461332
O        4.73039271       1.64129883       1.57873703
H        3.80178497       1.54165756       1.83540312
H        4.91507462       0.84795329       1.05470111
O        4.60195053       1.63869151       4.59446414
H        4.67538312       0.70074424       4.36428862
H        5.06901170       1.70972517       5.43999727
O        4.72457680       1.46182164       7.72273728
H        4.23505820       2.10079065       7.18402740
H        4.52832851       1.72463471       8.63407372
O        4.65749681       1.56802980      10.98217034
H        4.86838731       2.21220219      10.29029946
H        4.43163824       0.76355971      10.49233978
O        4.75649290       4.70168624       1.59713722
H        4.34687990       3.84735040       1.79824824
H        4.16117856       5.09916042       0.94465479
O        4.66281290       4.74919462       4.73010649
H        5.39021613       4.23148985       4.35462745
H        3.86728075       4.33495479       4.36452183
O        4.66847200       4.69310565       7.87265454
H        4.82653404       5.19401649       7.05888374
H        4.38569016       3.82113898       7.55988185
O        4.65290199       4.64812059      10.98296109
H        4.73967674       5.44563429      10.44022706
H        4.59710727       3.92940089      10.33608619
O        4.71181871       7.75056611       1.65696999
H        4.12960278       8.46244701       1.35304829
H        4.73584847       7.13302394       0.91119359
O        4.62873333       7.84269214       4.73749824
H        4.19756376       7.68012756       3.88556881
H        5.33256917       7.17833672       4.77444662
O        4.56472888       7.75341164       7.68351732
H        5.44876056       7.36851075       7.59155274
H        4.59340690       8.20419598       8.54030741
O        4.73828349       7.77632455      10.77922760
H        3.80273835       8.02618566      10.75818243
H        4.85099509       7.36321826      11.64799539
O        4.56126633      10.83264409       1.61731281
H        4.57587115      11.34581343       0.79599550
H        5.49399661      10.63303335       1.78550310
O        4.62131321      10.92978254       4.74923577
H        5.34053500      11.11084561       4.12629566
H        4.24895871      10.09089515       4.43981976
O        4.65366902      10.87673176       7.87855755
H        4.52685294      11.55906113       7.20293745
H        4.80379482      10.06708497       7.36860411
O        4.72087221      10.82390436      10.95569166
H        4.54819830      11.74318286      10.70423800
H        4.24482512      10.30558160      10.29023025
O        7.75898322       1.49530999       1.44707796
H        8.52719379       1.78566413       1.96056135
H        7.00094045       1.77185497       1.98281319
O        7.86696047       1.50212088       4.63882573
H        7.07719820       1.09985340       5.02943375
H        7.58711982       2.40317872       4.41996010
O        7.72255067       1.44826302       7.71461706
H        7.25910040       2.29873483       7.72007129
H        8.56049363       1.63515928       8.16299144
O        7.82772060       1.50745911      10.95148402
H        7.25022596       2.28446301      10.98120060
H        7.72801039       1.17586339      10.04692869
O        7.86570293       4.63985528       1.60481726
H        7.37619545       5.46784430       1.49108600
H        7.29818287       3.97331323       1.19037683
O        7.75117857       4.56603754       4.57820307
H        7.43801865       4.59506225       5.49428528
H        8.15255260       5.43663593       4.44008888
O        7.80824761       4.62000357       7.86295557
H        6.87930848       4.57631272       7.59225021
H        8.25471145       5.02365813       7.10410695
O        7.74101462       4.66098827      10.98163544
H        8.08639072       5.35695741      10.40330984
H        7.58549199       3.91513654      10.38360859
O        7.77449850       7.75236352       1.67013087
H        7.66436751       8.55095712       1.13325322
H        7.73964475       7.03013461       1.02570181
O        7.75612913       7.75457607       4.77507570
H        7.19783402       8.28053367       4.18364238
H        8.35313287       7.28285766       4.17575402
O        7.75711572       7.76248299       7.87920126
H        7.77255442       8.51314135       7.26732556
H        7.77051980       6.98699475       7.29906636
O        7.65998630       7.80299142      10.91270751
H        8.21348005       8.20994004      10.22995156
H        8.10662788       6.96612931      11.10838914
O        7.85854558      10.93117277       1.55211577
H        6.96668319      11.18134643       1.26907369
H        7.76495385      10.00927255       1.83400012
O        7.73228049      10.76066608       4.60330128
H        7.28077385      11.19258290       5.34337413
H        8.46098178      11.36208670       4.39021476
O        7.78499483      10.88023475       7.87547777
H        8.01168628      11.45520094       7.12972778
H        7.30835551      10.14292135       7.46645197
O        7.80150309      10.96555368      10.81722642
H        7.77069708      10.70761066      11.75030444
H        7.41727885      10.20796159      10.35188338
O       10.86600385       1.51252856       1.66452295
H       11.18951235       1.06395492       0.86938640
H       10.52245691       2.35581592       1.33443186
O       10.81260486       1.44583625       4.63835847
H       11.74878858       1.67740991       4.54862617
H       10.39037167       2.27589827       4.90450574
O       10.75735516       1.56236191       7.81237302
H       11.15267980       2.14212417       7.14475611
H       11.42847715       0.87898073       7.95626060
O       10.87402554       1.56863692      10.98166956
H       11.13270215       2.17242869      10.26988300
H       10.51509373       0.79847619      10.51676247
O       10.91829336       4.72224640       1.63498838
H       11.31664209       4.27802284       0.87203234
H        9.97701197       4.50400708       1.56806204
O       10.97097422       4.60395328       4.64756912
H       10.09915065       4.19578226       4.54061928
H       10.77305738       5.53259062       4.83882761
O       10.83509474       4.66164405       7.87556840
H       10.47130833       5.18157090       7.14382138
H       11.48793323       4.08527683       7.45163334
O       10.83504700       4.55765065      10.80306928
H       11.48955152       4.64942330      11.51110869
H       10.47007199       5.44936988      10.70433608
O       10.91597740       7.66402640       1.50392877
H       11.22985689       8.20435926       2.24395462
H       10.08232481       8.08342792       1.24461443
O       10.94247101       7.72462282       4.73854805
H       10.09151697       8.16653228       4.87533783
H       11.00871628       7.63648460       3.77627916
O       10.89746177       7.85619606       7.82204880
H       10.19301677       7.78848623       7.16076911
H       11.26728963       6.96194693       7.86284154
O       10.88904419       7.75327828      10.98040890
H       10.71075305       8.54627009      10.45363146
H       10.81689382       7.02750353      10.34309930
O       10.83847755      10.75790413       1.50387832
H       10.37835907      11.59962065       1.37000341
H       11.55382012      10.97714449       2.11896926
O       10.88359385      10.86337927       4.77363979
H       11.42918536      11.26311631       4.08034447
H       10.14206414      10.46984950       4.29053919
O       10.84789764      10.74815342       7.78331757
H       10.80611690      11.49234374       8.40182653
H       11.05070171      11.16242693       6.93163326
O       10.89127175      10.90757795      10.97161337
H       10.49155810      11.37441554      10.22300809
H       11.01826836      10.00496157      10.64408672
