Ba2Bi(V0.75Nb0.25)O6 relaxed with MACE-MP-0 (from the cubic cell)
 1.0000000000000000
     8.5549364257310305    0.0000000000000000    0.0000000000000000
     0.0000000000000000    8.5549364257307285    0.0000000000000509
     0.0000000000000000    0.0000000000000446    8.5549364257314018
 Ba  V   Nb  Bi  O  
   8   3   1   4  24
Direct
  0.2463230555006644  0.2463230555006718  0.2463230555006522
  0.7536769438294265  0.7536769438294492  0.7536769438293893
  0.7536769438294265  0.7536769438294518  0.2463230555006492
  0.2463230555006644  0.2463230555006691  0.7536769438293923
  0.7536769438294265  0.2463230555006691  0.7536769438293923
  0.2463230555006644  0.7536769438294518  0.2463230555006492
  0.2463230555006644  0.7536769438294492  0.7536769438293893
  0.7536769438294265  0.2463230555006718  0.2463230555006522
 -0.0000000000000000 -0.0000000000000026  0.4999999996650237
 -0.0000000000000000  0.4999999996650631 -0.0000000000000030
  0.4999999996650455 -0.0000000000000000 -0.0000000000000000
  0.4999999996650455  0.4999999996650605  0.4999999996650207
 -0.0000000000000000  0.0000000000000000 -0.0000000000000000
  0.4999999996650455  0.4999999996650631 -0.0000000000000030
  0.4999999996650455 -0.0000000000000026  0.4999999996650237
 -0.0000000000000000  0.4999999996650605  0.4999999996650207
  0.2662366014958870  0.4999999996650605  0.4999999996650207
  0.7337633990031196  0.4999999996650605  0.4999999996650207
  0.4999999996650455  0.2662366014958938  0.4999999996650222
  0.4999999996650455  0.7337633990031429  0.4999999996650194
  0.4999999996650455  0.4999999996650618  0.2662366014958725
  0.4999999996650455  0.4999999996650593  0.7337633990030847
  0.7743331300599279 -0.0000000000000026  0.4999999996650237
  0.2256668692701630 -0.0000000000000026  0.4999999996650237
 -0.0000000000000000  0.7743331300599525  0.4999999996650192
 -0.0000000000000000  0.2256668692701684  0.4999999996650224
 -0.0000000000000000 -0.0000000000000014  0.2722195460150247
 -0.0000000000000000 -0.0000000000000038  0.7277804544839385
  0.7743331300599279  0.4999999996650631 -0.0000000000000030
  0.2256668692701630  0.4999999996650631 -0.0000000000000030
 -0.0000000000000000  0.2722195460150461 -0.0000000000000016
 -0.0000000000000000  0.7277804544839958 -0.0000000000000043
 -0.0000000000000000  0.4999999996650590  0.7743331300598912
 -0.0000000000000000  0.4999999996650620  0.2256668692701502
  0.2722195460150365 -0.0000000000000000 -0.0000000000000000
  0.7277804544839701 -0.0000000000000000 -0.0000000000000000
  0.4999999996650455  0.7743331300599552 -0.0000000000000046
  0.4999999996650455  0.2256668692701710 -0.0000000000000013
  0.4999999996650455 -0.0000000000000040  0.7743331300598942
  0.4999999996650455 -0.0000000000000012  0.2256668692701532
