Ba2Bi(V0.75Ta0.25)O6 relaxed with MACE-MP-0 (from the cubic cell)
 1.0000000000000000
     8.5523808429230783   -0.0000000000000000   -0.0000000000000000
     0.0000000000000201    8.5523808429232524   -0.0000000000000556
     0.0000000000000046   -0.0000000000000747    8.5523808429221173
 Ba  V   Ta  Bi  O  
   8   3   1   4  24
Direct
  0.2463341072729801  0.2463341072729780  0.2463341072730102
  0.7536658935544968  0.7536658935544901  0.7536658935545885
  0.7536658935544970  0.7536658935544858  0.2463341072730134
  0.2463341072729799  0.2463341072729825  0.7536658935545851
  0.7536658935544979  0.2463341072729825  0.7536658935545851
  0.2463341072729789  0.7536658935544858  0.2463341072730134
  0.2463341072729787  0.7536658935544901  0.7536658935545885
  0.7536658935544982  0.2463341072729780  0.2463341072730102
 -0.0000000000000003  0.0000000000000044  0.4999999998291635
 -0.0000000000000012  0.4999999998290972  0.0000000000000033
  0.4999999998291073  0.0000000000000000  0.0000000000000000
  0.4999999998291059  0.4999999998291015  0.4999999998291667
  0.0000000000000000 -0.0000000000000000 -0.0000000000000000
  0.4999999998291061  0.4999999998290972  0.0000000000000033
  0.4999999998291070  0.0000000000000044  0.4999999998291635
 -0.0000000000000014  0.4999999998291015  0.4999999998291667
  0.2675561790367956  0.4999999998291015  0.4999999998291667
  0.7324438206214161  0.4999999998291015  0.4999999998291667
  0.4999999998291064  0.2675561790367960  0.4999999998291653
  0.4999999998291053  0.7324438206214071  0.4999999998291683
  0.4999999998291061  0.4999999998290995  0.2675561790368303
  0.4999999998291058  0.4999999998291036  0.7324438206215031
  0.7744323845775174  0.0000000000000044  0.4999999998291635
  0.2255676150806968  0.0000000000000044  0.4999999998291635
 -0.0000000000000021  0.7744323845775063  0.4999999998291686
 -0.0000000000000008  0.2255676150806968  0.4999999998291650
 -0.0000000000000001  0.0000000000000024  0.2721655995857991
 -0.0000000000000004  0.0000000000000064  0.7278344012417930
  0.7744323845775165  0.4999999998290972  0.0000000000000033
  0.2255676150806958  0.4999999998290972  0.0000000000000033
 -0.0000000000000006  0.2721655995857630  0.0000000000000018
 -0.0000000000000017  0.7278344012416964  0.0000000000000047
 -0.0000000000000016  0.4999999998291039  0.7744323845776080
 -0.0000000000000013  0.4999999998290992  0.2255676150807256
  0.2721655995857685  0.0000000000000000  0.0000000000000000
  0.7278344012417112  0.0000000000000000  0.0000000000000000
  0.4999999998291054  0.7744323845775020  0.0000000000000050
  0.4999999998291068  0.2255676150806925  0.0000000000000015
  0.4999999998291069  0.0000000000000068  0.7744323845776048
  0.4999999998291072  0.0000000000000020  0.2255676150807224
