80
Lattice="0.0 8.502097365913555 8.502097365913547 8.502097365913535 0.0 8.502097365913535 8.502097365913539 8.502097365913553 0.0" Properties=species:S:1:pos:R:3 group=nb_dilute80_test x=0.125 dopant=Nb pbc="T T T"
Ba       2.09508066       2.09508066       2.09508066
Ba       6.40701670       6.40701670       6.40701670
Ba       6.40701670       6.40701670       2.09508066
Ba      10.59717803      10.59717803       6.40701670
Ba       6.40701670       2.09508066       6.40701670
Ba      10.59717803       6.40701670      10.59717803
Ba      10.62776280       6.37643193       6.37643193
Ba      14.87852930      10.62776280      10.62776280
Ba       2.09508066       6.40701670       6.40701670
Ba       6.40701670      10.59717803      10.59717803
Ba       6.37643193      10.62776280       6.37643193
Ba      10.62776280      14.87852930      10.62776280
Ba       6.37643193       6.37643193      10.62776280
Ba      10.62776280      10.62776280      14.87852930
Ba      10.62776280      10.62776280      10.62776280
Ba      14.87852930      14.87852930      14.87852930
V        8.50209737       8.50209737       4.25104868
V        8.50209737       4.25104868       8.50209737
V       12.75314605       8.50209737       8.50209737
V        4.25104868       8.50209737       8.50209737
V        8.50209737      12.75314605       8.50209737
V        8.50209737       8.50209737      12.75314605
V       12.75314605      12.75314605      12.75314605
Nb       4.25104868       4.25104868       4.25104868
Bi      -0.00000000      -0.00000000      -0.00000000
Bi       4.25104868       4.25104868      -0.02089532
Bi       4.25104868      -0.02089532       4.25104868
Bi       8.52299268       4.25104868       4.25104868
Bi      -0.02089532       4.25104868       4.25104868
Bi       4.25104868       8.52299268       4.25104868
Bi       4.25104868       4.25104868       8.52299268
Bi       8.50209737       8.50209737       8.50209737
O        2.24920599       4.25104868       4.25104868
O        6.25289137       4.25104868       4.25104868
O        4.25104868       2.24920599       4.25104868
O        4.25104868       6.25289137       4.25104868
O        4.25104868       4.25104868       2.24920599
O        4.25104868       4.25104868       6.25289137
O        6.57680048       8.50511223       4.25104868
O       10.42739425       8.49908250       4.25104868
O        8.50511223       6.57680048       4.25104868
O        8.49908250      10.42739425       4.25104868
O        8.50209737       8.50209737       2.31722180
O        8.50209737       8.50209737       6.18487557
O        6.57680048       4.25104868       8.50511223
O       10.42739425       4.25104868       8.49908250
O        8.50209737       2.31722180       8.50209737
O        8.50209737       6.18487557       8.50209737
O        8.50511223       4.25104868       6.57680048
O        8.49908250       4.25104868      10.42739425
O       10.81931916       8.50209737       8.50209737
O       14.68697293       8.50209737       8.50209737
O       12.75314605       6.57680048       8.49908250
O       12.75314605      10.42739425       8.50511223
O       12.75314605       8.49908250       6.57680048
O       12.75314605       8.50511223      10.42739425
O        2.31722180       8.50209737       8.50209737
O        6.18487557       8.50209737       8.50209737
O        4.25104868       6.57680048       8.50511223
O        4.25104868      10.42739425       8.49908250
O        4.25104868       8.50511223       6.57680048
O        4.25104868       8.49908250      10.42739425
O        6.57680048      12.75314605       8.49908250
O       10.42739425      12.75314605       8.50511223
O        8.50209737      10.81931916       8.50209737
O        8.50209737      14.68697293       8.50209737
O        8.49908250      12.75314605       6.57680048
O        8.50511223      12.75314605      10.42739425
O        6.57680048       8.49908250      12.75314605
O       10.42739425       8.50511223      12.75314605
O        8.49908250       6.57680048      12.75314605
O        8.50511223      10.42739425      12.75314605
O        8.50209737       8.50209737      10.81931916
O        8.50209737       8.50209737      14.68697293
O       10.83776249      12.75314605      12.75314605
O       14.66852961      12.75314605      12.75314605
O       12.75314605      10.83776249      12.75314605
O       12.75314605      14.66852961      12.75314605
O       12.75314605      12.75314605      10.83776249
O       12.75314605      12.75314605      14.66852961
80
Lattice="0.0 8.502097365913555 8.502097365913547 8.502097365913535 0.0 8.502097365913535 8.502097365913539 8.502097365913553 0.0" Properties=species:S:1:pos:R:3:momenta:R:3 group=nb_dilute80_test x=0.125 dopant=Nb pbc="T T T"
Ba       1.80249125       1.96681400       2.09782712      -1.33404970      -1.34590779      -1.33543229
Ba       6.16886150       6.49750604       6.43199097      -0.44207428       2.24905158      -1.65986123
Ba       6.19438650       6.32262298       1.92784357      -0.43129923      -2.53464354       0.31166851
Ba      10.39253810      10.56368277       6.14425342       2.49296186       3.09855859       1.16341714
Ba       6.11199627       2.14511296       6.36402421       1.37975079      -3.41109625       1.09603858
Ba      10.39694022       6.42274078      10.45900896       2.88583621      -0.09631396       0.11882735
Ba      10.66170961       6.70719161       6.17475672      -4.33851474      -3.53228005      -2.86954346
Ba      14.82170980      10.70284160      10.46743850       1.57147172      -2.32583612      -2.00270994
Ba       1.97284747       6.56212836       6.32217035      -1.84336299       0.08819093      -2.70349609
Ba       6.02757352      10.64491751      10.52402960       4.18389147      -0.33849689      -0.39699883
Ba       6.09733543      10.68936776       6.21892990      -4.49989158       4.63445290       3.66392382
Ba      10.33444850      14.97351998      10.47951458       0.55861266      -0.55463856       0.36617623
Ba       6.20122561       6.25025240      10.60949074      -0.10944226       1.28644422      -1.43764897
Ba      10.45783287      10.75815781      14.92483762       0.35757079       1.71401952       1.55659490
Ba      10.32931581      10.56025599      10.32927196       0.64216897      -0.10760678      -1.64672803
Ba      14.59266842      15.02904172      14.62861090      -1.50308350       0.04337418       2.18270514
V        8.31128926       8.42252182       4.04717067       0.03990259       1.56654037       0.26172383
V        8.40727847       4.30957432       8.35588341      -0.19913997      -1.91392717      -1.45356550
V       12.53260366       8.51766025       8.43724736      -0.49070991       2.00008376       3.34215118
V        4.02503693       8.36101770       8.39177385       0.91044120       2.24246683      -0.98252644
V        8.17248253      12.80632358       8.41353668      -1.73747908       0.40113453      -2.44897347
V        8.49853500       8.67662160      12.78511318      -0.47813464       0.13898974      -0.30952399
V       12.74420880      12.64408566      12.66864020       1.62087968      -1.63357146      -1.48859938
Nb       4.04221436       4.29185354       4.10705440      -1.78756665       3.56142341      -1.50739159
Bi      -0.30942060       0.08856504      -0.11304167       1.78408659       4.25937607      -0.37017001
Bi       4.08964280       4.27032308      -0.18669243      -5.75704194      -1.83898933      -2.45197595
Bi       4.09994722       0.00178955       4.08389234      -5.93612216       0.26370650      -1.64354128
Bi       8.44249454       4.16846554       4.18748862       1.82686250      -2.54996042      -0.81895964
Bi      -0.10133349       4.35774655       4.07252393       1.12935335       0.37727843       1.98577625
Bi       4.04701854       8.51010538       4.26319141      -1.88021876      -1.09740576      -0.97121954
Bi       4.08722776       4.27156578       8.42940133      -2.85796212      -4.45815654       2.39511365
Bi       8.28424753       8.48897624       8.33917065      -3.50008222       0.08674829      -0.96429136
O        2.04342082       4.21291438       4.22269010      -0.17849701       0.34342384       1.56077436
O        5.86452583       4.65989102       4.06760132      -1.83562079      -0.82760553       0.35654221
O        4.09790030       2.31131163       4.16294100      -0.29683631       0.72073560      -1.18542318
O        3.47340973       6.28150484       4.18130770       0.35329879       0.52397424       0.88421804
O        3.86337663       4.32922723       2.07870894       0.86984443       0.00525415      -0.54263501
O        4.10806534       4.30541685       6.20464738       0.98139142      -1.21042994      -0.28477943
O        6.45048026       8.39439695       4.58057543      -0.21455773      -0.31289172      -0.64666600
O       10.02469525       8.57947491       4.29688301      -1.39680549       0.79928857       1.42630795
O        8.38217827       6.64907020       3.71983142      -0.73314838      -0.03586027      -0.69228990
O        8.30419766      10.67525301       4.17241976       0.81183568       0.03285553      -0.47644102
O        8.06267313       8.61040255       2.22962953       0.34154944       0.36393075      -1.10307250
O        8.45612065       8.08356926       6.27962715       0.64631015      -0.59943565       0.94467370
O        6.16111640       4.35269040       8.68130541       1.12228964       0.47135035      -0.02987735
O       10.12727332       4.32425903       8.10381735      -0.09970402      -0.33780438       0.62382324
O        8.24611379       2.27672283       8.54161898      -0.17281627      -0.58320113      -0.57366912
O        8.13006692       6.07383501       8.66083622      -1.23512674       0.47787465      -0.23364900
O        7.83030091       4.13797197       6.60978094      -0.45342000      -1.11659540       0.37298998
O        8.44529044       4.21860558      10.42498380       0.06469480       0.53934643       1.16882377
O       10.53482476       8.72021755       8.47926547      -0.89776290       0.68216177      -0.23915067
O       14.58954820       8.29080754       8.23904133       0.21228106      -0.52994502       0.85044841
O       12.30076679       6.68803464       8.13255224       0.25818831      -0.71270960       0.92706051
O       12.52106335      10.31540501       8.25076805       0.64222178       1.18963804       0.10360309
O       12.51835753       8.52272328       6.32319461      -2.19973596      -2.29178602       0.02500438
O       12.66087627       8.62970361      10.21035849      -0.02362705       0.06414997       0.35454172
O        2.10948383       8.57731862       8.58576864       0.66244129      -0.06193106      -0.25084780
O        5.83298370       8.48364570       8.22636109      -0.57454767      -0.32827938       1.50611486
O        3.94436410       6.56443346       8.35897226       1.79956622       0.62578671      -0.74189946
O        3.94371376      10.66213657       8.33787683       0.71429582       0.32679074      -0.79366569
O        3.68771555       8.38567838       6.42138935      -0.56148582      -0.34862601      -1.24246825
O        4.13091142       8.52524743      10.24903385       0.60911118       1.20422323       0.56579421
O        6.15584977      12.64427673       8.60237292       0.52373819       0.15883345       0.48618678
O       10.06575998      12.71745392       8.39699153       0.54332733      -0.88580205       0.79868717
O        8.18040192      10.66629116       8.17415826       0.87563654       0.60513047      -0.35144057
O        8.11138649      14.52885476       8.80643751       0.47331660       0.57879621       0.68327494
O        8.05858573      13.00231283       6.57839775      -0.32612625       0.81760859      -0.30519139
O        8.30271638      12.45809431      10.52344323      -0.12845163       2.33760562       0.66384851
O        6.24899383       8.58641239      12.72041929      -0.59874661       1.03856551      -0.06081573
O       10.30740986       8.73993341      12.71450024      -0.59776997      -0.15017632      -0.34075228
O        8.44968661       6.83939269      12.73130457       0.27446056      -0.01908171      -0.41750711
O        8.22692957      10.55730426      12.93233899      -0.20268981      -0.29975789      -0.01780309
O        8.20493930       8.67538491      11.06673008       0.36986522      -0.64160166      -0.09116246
O        8.22951296       8.39084507      14.74119400       0.22705887       0.71081760      -0.22724555
O       10.53231767      12.75663632      12.85406769      -1.18149192      -1.56576991       0.55835186
O       14.58684438      12.59558884      12.42811793       0.98459963      -0.44619997      -0.44410120
O       12.62310157      10.77125494      12.73274230      -0.02800218       0.78690621      -1.47934421
O       12.69691997      14.62909537      12.54780721       0.76206822       0.05520098      -0.88134886
O       12.32846338      12.58805727      10.85214331      -0.82467362       0.16996829      -0.24426522
O       12.77508703      12.81340875      14.44763273      -0.15755688      -0.10580128       0.68107150
80
Lattice="0.0 8.502097365913555 8.502097365913547 8.502097365913535 0.0 8.502097365913535 8.502097365913539 8.502097365913553 0.0" Properties=species:S:1:pos:R:3 group=ta_dilute80_test x=0.125 dopant=Ta pbc="T T T"
Ba       2.09338704       2.09338704       2.09338704
Ba       6.40871032       6.40871032       6.40871032
Ba       6.40871032       6.40871032       2.09338704
Ba      10.59548441      10.59548441       6.40871032
Ba       6.40871032       2.09338704       6.40871032
Ba      10.59548441       6.40871032      10.59548441
Ba      10.63010424       6.37409049       6.37409049
Ba      14.87618785      10.63010424      10.63010424
Ba       2.09338704       6.40871032       6.40871032
Ba       6.40871032      10.59548441      10.59548441
Ba       6.37409049      10.63010424       6.37409049
Ba      10.63010424      14.87618785      10.63010424
Ba       6.37409049       6.37409049      10.63010424
Ba      10.63010424      10.63010424      14.87618785
Ba      10.63010424      10.63010424      10.63010424
Ba      14.87618785      14.87618785      14.87618785
V        8.50209737       8.50209737       4.25104868
V        8.50209737       4.25104868       8.50209737
V       12.75314605       8.50209737       8.50209737
V        4.25104868       8.50209737       8.50209737
V        8.50209737      12.75314605       8.50209737
V        8.50209737       8.50209737      12.75314605
V       12.75314605      12.75314605      12.75314605
Ta       4.25104868       4.25104868       4.25104868
Bi      -0.00000000      -0.00000000      -0.00000000
Bi       4.25104868       4.25104868      -0.01496881
Bi       4.25104868      -0.01496881       4.25104868
Bi       8.51706617       4.25104868       4.25104868
Bi      -0.01496881       4.25104868       4.25104868
Bi       4.25104868       8.51706617       4.25104868
Bi       4.25104868       4.25104868       8.51706617
Bi       8.50209737       8.50209737       8.50209737
O        2.26236075       4.25104868       4.25104868
O        6.23973662       4.25104868       4.25104868
O        4.25104868       2.26236075       4.25104868
O        4.25104868       6.23973662       4.25104868
O        4.25104868       4.25104868       2.26236075
O        4.25104868       4.25104868       6.23973662
O        6.57758647       8.50501283       4.25104868
O       10.42660826       8.49918190       4.25104868
O        8.50501283       6.57758647       4.25104868
O        8.49918190      10.42660826       4.25104868
O        8.50209737       8.50209737       2.31666211
O        8.50209737       8.50209737       6.18543526
O        6.57758647       4.25104868       8.50501283
O       10.42660826       4.25104868       8.49918190
O        8.50209737       2.31666211       8.50209737
O        8.50209737       6.18543526       8.50209737
O        8.50501283       4.25104868       6.57758647
O        8.49918190       4.25104868      10.42660826
O       10.81875947       8.50209737       8.50209737
O       14.68753262       8.50209737       8.50209737
O       12.75314605       6.57758647       8.49918190
O       12.75314605      10.42660826       8.50501283
O       12.75314605       8.49918190       6.57758647
O       12.75314605       8.50501283      10.42660826
O        2.31666211       8.50209737       8.50209737
O        6.18543526       8.50209737       8.50209737
O        4.25104868       6.57758647       8.50501283
O        4.25104868      10.42660826       8.49918190
O        4.25104868       8.50501283       6.57758647
O        4.25104868       8.49918190      10.42660826
O        6.57758647      12.75314605       8.49918190
O       10.42660826      12.75314605       8.50501283
O        8.50209737      10.81875947       8.50209737
O        8.50209737      14.68753262       8.50209737
O        8.49918190      12.75314605       6.57758647
O        8.50501283      12.75314605      10.42660826
O        6.57758647       8.49918190      12.75314605
O       10.42660826       8.50501283      12.75314605
O        8.49918190       6.57758647      12.75314605
O        8.50501283      10.42660826      12.75314605
O        8.50209737       8.50209737      10.81875947
O        8.50209737       8.50209737      14.68753262
O       10.83583611      12.75314605      12.75314605
O       14.67045599      12.75314605      12.75314605
O       12.75314605      10.83583611      12.75314605
O       12.75314605      14.67045599      12.75314605
O       12.75314605      12.75314605      10.83583611
O       12.75314605      12.75314605      14.67045599
80
Lattice="0.0 8.502097365913555 8.502097365913547 8.502097365913535 0.0 8.502097365913535 8.502097365913539 8.502097365913553 0.0" Properties=species:S:1:pos:R:3:momenta:R:3 group=ta_dilute80_test x=0.125 dopant=Ta pbc="T T T"
Ba       1.79805999       1.93081808       2.06270506      -1.86410293      -2.12621562      -1.91787759
Ba       6.19476828       6.46001660       6.41801491      -0.27946183       0.99385349      -1.58208390
Ba       6.16201671       6.31315529       1.89815263      -1.08458040      -2.12992720       0.43713637
Ba      10.38062508      10.57627482       6.12913286       2.34496017       3.27586990       0.39224779
Ba       6.10574682       2.16505721       6.35362280       0.72507556      -2.36021656       0.79741408
Ba      10.40160451       6.41841057      10.44552430       2.42780221       0.85221622      -0.40705125
Ba      10.68972107       6.71717187       6.17784997      -3.17608988      -2.84575857      -2.03033468
Ba      14.81635790      10.71991703      10.48625952       1.98112406      -2.45636762      -2.69725964
Ba       1.94743311       6.56729987       6.31898855      -1.37887368       1.10019419      -2.85732583
Ba       6.01584270      10.64686662      10.51116546       3.80398515      -0.46977058      -0.17066050
Ba       6.12572849      10.69361764       6.18656731      -3.70718092       4.10991731       3.66344370
Ba      10.35719652      14.98078028      10.47810131       0.75247705      -0.46975515       0.42922209
Ba       6.20486535       6.21891303      10.62984042       0.00738538       0.34515261      -0.93714857
Ba      10.45047831      10.76500118      14.92359950      -0.06296215       1.39181485       2.61156302
Ba      10.34284720      10.59363062      10.35299595       0.87704160       0.21011946      -1.79574128
Ba      14.58972281      15.04481530      14.62634334      -1.94682875       0.46186823       2.10153200
V        8.31118092       8.41300115       4.07492837       0.19748329       1.63302127      -0.11050831
V        8.39467126       4.30103734       8.38161903      -0.40675629      -2.70286194      -1.26363866
V       12.53824793       8.53853293       8.40545564      -0.17552344      -1.18242737       3.37344102
V        4.06564058       8.39969519       8.40633886       0.29448611       2.95123614      -1.80952229
V        8.18458676      12.81020660       8.39812454      -1.52544729       0.27018640      -2.60083305
V        8.48176266       8.70308099      12.82798619      -0.70105573      -0.48401847       0.64232315
V       12.62057931      12.60974911      12.69464371       0.60923680       0.67808901      -2.50934923
Ta       4.04176097       4.30112084       4.12610595      -0.63457817       2.27528433       0.03127372
Bi      -0.30833268       0.08976702      -0.10605243       0.65628323       4.40718451      -0.20229435
Bi       4.07982386       4.27722545      -0.15740679      -5.62622304      -1.24593241      -2.35795875
Bi       4.10322232      -0.00953154       4.03538554      -5.31058702      -1.12289054      -0.81911019
Bi       8.42537761       4.20523732       4.14517441       0.48467967      -1.34651745      -1.94066228
Bi      -0.10965503       4.39456890       4.07111716      -0.51839381       2.08343202       1.89666885
Bi       4.05185616       8.46300200       4.19671914      -2.08322071      -2.64665864      -1.51271677
Bi       4.07511480       4.27419233       8.49241913      -1.18949532      -4.46617953       1.78226521
Bi       8.30164752       8.49452463       8.34473923      -2.47372280       0.28760042       0.20564265
O        2.11244115       4.21975866       4.13519700      -0.54465560      -0.13927726       1.22101695
O        5.88034159       4.64052118       4.07871541      -1.28855630      -0.73413265       0.08801518
O        4.13239117       2.32531841       4.10290634       0.16798251       1.39398883      -1.15268521
O        3.57779817       6.33442124       4.14917796       1.30413425       1.24589071       1.61715736
O        3.95661918       4.35734081       2.07541617       1.15207191      -0.40860424       0.45127068
O        4.12408579       4.34644336       6.07691919       0.57547228      -1.34366666      -0.47385034
O        6.46635333       8.32873557       4.55199048      -0.75500282      -0.16249821      -0.89340820
O       10.05154695       8.54954199       4.27430581      -1.23344885       0.52135554       1.15462417
O        8.39539427       6.64408026       3.67855572      -0.33381808       0.63985992      -1.00523964
O        8.30483080      10.58260759       4.21233467       0.67130102      -0.11107855      -0.44517863
O        8.15027791       8.60659568       2.20482065       0.32529801       0.22118156      -1.18832547
O        8.49608616       8.06590912       6.29933476       0.33692039      -0.76230722       1.10547943
O        6.20309572       4.36170789       8.56572912       0.94210940       0.37229523      -0.08470222
O       10.09168487       4.23574796       8.18162292      -0.39939924      -0.31445752       0.35582397
O        8.21216462       2.25244646       8.44093111      -0.50665241      -0.42304656      -0.61875806
O        8.12297706       6.12074115       8.69074348      -1.18425874       0.35999307      -0.18790942
O        7.95518589       4.20152155       6.54975417      -0.23635405      -1.16310910       0.83885082
O        8.34516087       4.18246078      10.35785743       0.29306033       0.71282879       0.69125060
O       10.56615008       8.70112253       8.44192340      -0.93196644       0.71555678      -0.53669666
O       14.52000646       8.32005853       8.30043807       0.15538877      -0.39306668       0.21634821
O       12.34762018       6.76175923       8.10113747       0.45209575       0.47253862       0.68075548
O       12.52589345      10.33658781       8.23736404       0.70105895       1.53914489      -0.32434855
O       12.53890939       8.57068661       6.27313331      -1.75252462      -2.00349974       0.22562251
O       12.58131870       8.64514805      10.32951326      -0.13459775       0.64433950       0.33958024
O        2.07934570       8.56822738       8.53423773       0.56931777      -0.08152730      -0.05433214
O        5.81655606       8.48810056       8.18057894       0.06012707       0.08195442       1.06289696
O        3.97773479       6.50608862       8.30558394       1.88864957      -0.15726661      -0.02250823
O        3.94096704      10.60825481       8.44035049       1.01766773       0.94008181      -0.56876122
O        3.74345834       8.47551664       6.37503682      -0.37597461      -0.79087023      -1.55153807
O        4.08867529       8.45434346      10.21731425       0.39430280       0.75385960       0.74106248
O        6.15530658      12.56875328       8.40124139       0.43480408      -0.03264410       0.64469618
O       10.07663192      12.77547138       8.54707000       1.10483444      -0.70472132       0.84221404
O        8.21176764      10.67689538       8.15082075       0.73429594       0.70802501      -0.26227828
O        8.02180094      14.50139145       8.85358178       0.11213570       0.87790891       0.34921569
O        8.21481456      13.01905344       6.54369726      -0.11182974       0.89091336      -0.62346464
O        8.22655005      12.42209814      10.51384881      -0.80989263       1.70393399       0.50145752
O        6.21653829       8.60764372      12.72295424      -0.97250772       0.90615350      -0.26897643
O       10.30005328       8.78397451      12.79693192      -0.18030781       0.03518881      -0.46895574
O        8.42880319       6.75205794      12.71046364       0.12445153       0.08197583      -0.56200233
O        8.24680797      10.57993444      12.94558583      -0.00415691      -0.33197979       0.05313257
O        8.22497844       8.61938053      11.08482320       0.06587388      -0.83246754      -0.14387309
O        8.13030659       8.32666865      14.69976045       0.19748348       0.74656566      -0.27736095
O       10.68954286      12.72427288      12.47264710      -0.73679916      -1.84980889       0.26752326
O       14.46237813      12.73575891      12.57985471      -0.47206495      -0.14848348       0.37523848
O       12.68167774      10.93348028      12.61664687      -0.02869226       0.18460346      -1.49546796
O       12.63305455      14.59486826      12.61667038       0.92877476      -0.47201997      -0.79947196
O       12.45565906      12.57113126      10.62193283      -0.41486575       0.92358226       0.93748636
O       12.63418124      12.78020513      14.60538025      -0.17040510      -0.83718266       0.24559960
