40
Lattice="8.502084612539559 -3.102115698629211e-19 2.373042799584155e-18 2.4275256878382387e-17 8.502084612539877 -2.764785673410445e-13 6.557428733679516e-17 -2.0835108751049721e-13 8.502084612539575" Properties=species:S:1:pos:R:3 group=pristine_min x=0.0 dopant=none pbc="T T T"
Ba       2.12552115       2.12552115       2.12552115
Ba       6.37656346       6.37656346       6.37656346
Ba       6.37656346       6.37656346       2.12552115
Ba       2.12552115       2.12552115       6.37656346
Ba       6.37656346       2.12552115       6.37656346
Ba       2.12552115       6.37656346       2.12552115
Ba       2.12552115       6.37656346       6.37656346
Ba       6.37656346       2.12552115       2.12552115
V        4.25104231       4.25104231       4.25104231
V       -0.00000000      -0.00000000       4.25104231
V        0.00000000       4.25104231      -0.00000000
V        4.25104231      -0.00000000      -0.00000000
Bi      -0.00000000      -0.00000000      -0.00000000
Bi       4.25104231       4.25104231      -0.00000000
Bi       4.25104231      -0.00000000       4.25104231
Bi      -0.00000000       4.25104231       4.25104231
O        2.32334151       4.25104231       4.25104231
O        6.17874310       4.25104231       4.25104231
O        4.25104231       2.32334151       4.25104231
O        4.25104231       6.17874310       4.25104231
O        4.25104231       4.25104231       2.32334151
O        4.25104231       4.25104231       6.17874310
O        6.57438382      -0.00000000       4.25104231
O        1.92770080      -0.00000000       4.25104231
O       -0.00000000       6.57438382       4.25104231
O       -0.00000000       1.92770080       4.25104231
O       -0.00000000      -0.00000000       2.32334151
O       -0.00000000      -0.00000000       6.17874310
O        6.57438382       4.25104231      -0.00000000
O        1.92770080       4.25104231      -0.00000000
O       -0.00000000       2.32334151      -0.00000000
O       -0.00000000       6.17874310      -0.00000000
O       -0.00000000       4.25104231       6.57438382
O       -0.00000000       4.25104231       1.92770080
O        2.32334151      -0.00000000      -0.00000000
O        6.17874310      -0.00000000      -0.00000000
O        4.25104231       6.57438382      -0.00000000
O        4.25104231       1.92770080      -0.00000000
O        4.25104231      -0.00000000       6.57438382
O        4.25104231      -0.00000000       1.92770080
40
Lattice="8.55493642573103 1.1896845407485301e-18 1.1524189749062779e-18 4.733129980712922e-17 8.554936425730729 5.088094451451795e-14 2.072802690253161e-17 4.4607251312774534e-14 8.554936425731402" Properties=species:S:1:pos:R:3 group=nb0.25_min x=0.25 dopant=Nb pbc="T T T"
Ba       2.10727808       2.10727808       2.10727808
Ba       6.44765834       6.44765834       6.44765834
Ba       6.44765834       6.44765834       2.10727808
Ba       2.10727808       2.10727808       6.44765834
Ba       6.44765834       2.10727808       6.44765834
Ba       2.10727808       6.44765834       2.10727808
Ba       2.10727808       6.44765834       6.44765834
Ba       6.44765834       2.10727808       2.10727808
V       -0.00000000      -0.00000000       4.27746821
V       -0.00000000       4.27746821      -0.00000000
V        4.27746821      -0.00000000      -0.00000000
Nb       4.27746821       4.27746821       4.27746821
Bi      -0.00000000      -0.00000000      -0.00000000
Bi       4.27746821       4.27746821       0.00000000
Bi       4.27746821       0.00000000       4.27746821
Bi      -0.00000000       4.27746821       4.27746821
O        2.27763720       4.27746821       4.27746821
O        6.27729923       4.27746821       4.27746821
O        4.27746821       2.27763720       4.27746821
O        4.27746821       6.27729923       4.27746821
O        4.27746821       4.27746821       2.27763720
O        4.27746821       4.27746821       6.27729923
O        6.62437070       0.00000000       4.27746821
O        1.93056572       0.00000000       4.27746821
O        0.00000000       6.62437070       4.27746821
O        0.00000000       1.93056572       4.27746821
O        0.00000000       0.00000000       2.32882091
O        0.00000000       0.00000000       6.22611552
O        6.62437070       4.27746821       0.00000000
O        1.93056572       4.27746821       0.00000000
O        0.00000000       2.32882091       0.00000000
O        0.00000000       6.22611552       0.00000000
O        0.00000000       4.27746821       6.62437070
O        0.00000000       4.27746821       1.93056572
O        2.32882091       0.00000000      -0.00000000
O        6.22611552       0.00000000      -0.00000000
O        4.27746821       6.62437070       0.00000000
O        4.27746821       1.93056572       0.00000000
O        4.27746821       0.00000000       6.62437070
O        4.27746821       0.00000000       1.93056572
40
Lattice="8.55493642573103 1.1896845407485301e-18 1.1524189749062779e-18 4.733129980712922e-17 8.554936425730729 5.088094451451795e-14 2.072802690253161e-17 4.4607251312774534e-14 8.554936425731402" Properties=species:S:1:pos:R:3:momenta:R:3 group=nb0.25_md x=0.25 dopant=Nb pbc="T T T"
Ba       2.24840656       1.93487954       2.15609676       2.22917522      -1.93747471       3.53659783
Ba       6.50369957       6.32116317       6.61056668      -3.59742156      -0.86982630      -0.41127892
Ba       6.37961414       6.39909790       2.13087140       0.50370537      -2.18939158      -0.98783887
Ba       2.21599499       2.00540975       6.47547799       1.49730090      -0.34115964      -0.40326467
Ba       6.48603974       1.99692811       6.52469562       1.74433328       2.75648695       0.67663737
Ba       2.04619372       6.43137420       2.30229499      -0.49781772      -2.69962281       3.97203448
Ba       2.24091391       6.32900319       6.62886244       2.35999363       2.09851087      -2.08496215
Ba       6.67212293       1.99374111       2.14166800      -0.68071168      -0.06689188       1.22925526
V        0.17025137      -0.06295511       4.36202662       1.10565218      -0.09845753      -0.09335199
V        0.17240682       4.24261270       0.09463977      -2.06145599       1.23820922       1.26249931
V        4.40776448      -0.02662019       0.04475720       2.16225309      -0.08729806      -1.44056043
Nb       4.33310787       4.30409230       4.34707487       3.00631713      -3.11869537       0.42945498
Bi       0.11191445       0.03259093       0.01330981      -0.43597839       3.31982074       3.06624537
Bi       4.25281522       4.13798253       0.14858302       2.35932053      -2.56197163       2.42912757
Bi       4.38071721      -0.06145304       4.24748420      -0.16969579       2.58284994      -5.87750304
Bi       0.07697225       4.22241140       4.52491475      -2.60494828      -2.64054743       0.99620271
O        2.29753142       4.26754112       4.88255095      -0.30243054       0.60256919      -0.24563051
O        6.33295319       4.22606585       4.14891458      -0.73037731      -0.01868062      -0.43439286
O        4.28196304       2.33788694       4.32390461       0.38616200      -0.32821827      -0.35071004
O        4.22157710       6.29824863       4.11232527       0.16597960      -0.40871337      -0.10155947
O        3.82551492       4.25838573       2.32009604      -0.50467523      -0.36590280      -0.20423465
O        4.60699635       4.49056240       6.31844361       0.05493873       0.45779138       0.28303670
O        6.62307331      -0.02512975       4.41898646       0.96672989      -0.68560035      -0.31487881
O        1.98412933      -0.14707463       4.24413148      -0.25355360       0.01348093       0.36724830
O       -0.02840708       6.43194924       4.35907021      -0.81742630       0.09820023       0.12379029
O        0.10641914       1.73763612       4.46615991       0.24059496      -0.14527206      -0.15016088
O        0.02527640      -0.10462512       2.40308425      -0.50659534       0.74045590       0.24332794
O        0.15530281      -0.25333366       6.33009615      -0.28542454       0.57301934       0.08627560
O        6.50160843       3.95355317       0.38727636       0.37907168      -0.15957647      -0.60859367
O        1.95793659       4.32941479      -0.20494227      -0.66806054      -0.24136946       0.29409203
O        0.28017218       2.17872680       0.01889417      -0.32315187       0.89324717       0.72046978
O       -0.08372739       6.08824669      -0.00467461       0.44300868      -1.08852902      -0.08276195
O       -0.21781484       4.09933797       6.67063355      -0.78855351      -0.68641060       0.37886468
O        0.35647867       4.24050148       1.91878615      -0.43318450      -0.20958535      -0.27968249
O        2.22480665      -0.27210699       0.17137819      -0.21889894       0.25833329       0.65120419
O        6.22949609       0.12936232       0.05527968      -0.15966890       1.06936797       0.01849274
O        4.50544555       6.73397130       0.15237429       0.21537464       1.34072382      -0.86686627
O        3.85619011       2.03158253       0.06448471      -0.71064289      -0.04612738      -0.83351117
O        4.21463258      -0.11171616       6.75903068       0.58599464      -1.23136672       0.03791736
O        4.26387691       0.24086282       1.91885870      -0.17236831       0.33649872      -0.21212640
40
Lattice="8.55493642573103 1.1896845407485301e-18 1.1524189749062779e-18 4.733129980712922e-17 8.554936425730729 5.088094451451795e-14 2.072802690253161e-17 4.4607251312774534e-14 8.554936425731402" Properties=species:S:1:pos:R:3:momenta:R:3 group=nb0.25_md x=0.25 dopant=Nb pbc="T T T"
Ba       2.28301645       1.91193819       2.26741350      -0.28456028      -0.26429094       3.09938939
Ba       6.43093376       6.31851647       6.59363710      -1.50138023       0.45104526      -0.98478742
Ba       6.43258402       6.32432206       2.13140045       2.87290621      -2.21304229       1.47576823
Ba       2.22891423       2.00194597       6.45383604      -0.36605205      -0.38030516      -0.56666302
Ba       6.51867740       2.08199068       6.52522086       0.32326276       1.85962560      -0.47224016
Ba       2.05477219       6.33700658       2.39288004       0.40407299      -3.41780738       2.97540782
Ba       2.30558352       6.41149438       6.56698407       0.45014438       4.55945280      -2.24495712
Ba       6.65543170       2.01426057       2.19948253      -0.23641347       0.00795269       2.90660487
V        0.08543049      -0.06582998       4.38546494      -2.29195152       0.27437245       0.16061581
V        0.06602336       4.24322655       0.18735144      -0.67755403      -0.99547330       0.56635726
V        4.46278505      -0.01250045      -0.04399608      -0.80261316      -0.10643015      -1.29226790
Nb       4.37698343       4.18157768       4.38117696      -0.12374307      -1.41323047       0.16735123
Bi       0.11574860       0.07202277       0.06076410       1.61732549      -0.81740994       1.80108527
Bi       4.32053646       4.09507610       0.18211665       3.52271606      -1.53627003       1.08665054
Bi       4.40335348      -0.02680872       4.15223562       1.95538974       1.00938247      -3.80511502
Bi       0.05165073       4.20560752       4.53370542      -0.47713668       1.04455081      -0.89600568
O        2.24153642       4.29299021       4.76703846      -0.01148308      -0.33686062      -0.43133786
O        6.27245532       4.27812188       3.83291626       0.36221085      -0.02312097      -1.33596574
O        4.28593721       2.21719156       4.43806962      -0.10518332       0.04955098       1.20038275
O        4.26693825       6.20970368       4.04681791       0.17441647      -0.55038706      -0.32187910
O        3.80939007       4.12384536       2.36742211       0.16357730      -1.16491395      -0.30930362
O        4.60499425       4.38350281       6.29905225       0.31902266      -0.90460509       0.50152866
O        6.53521605      -0.17536865       4.32398334      -0.86018610      -0.09725228      -0.07456339
O        1.95122446      -0.18301500       4.35138680      -0.78768601      -0.03689208       0.16931556
O       -0.06959948       6.41078791       4.38030954       0.67519613      -0.09084177       0.09264265
O        0.06971215       1.78176706       4.43539930      -0.60612763       0.12813852      -0.08533664
O       -0.06516313      -0.05295824       2.48346292       0.39016674      -0.53294413       0.65085863
O        0.08236512      -0.06865829       6.35308161      -0.35345009       0.64140435       0.10947998
O        6.52271526       3.94435376       0.33216207      -0.52706533       0.22561146      -0.14488040
O        1.84352490       4.27858891      -0.32490450      -0.33810624      -0.08795188      -0.53516978
O        0.17142673       2.11991645       0.18154278      -0.37406373      -0.47896880       0.20071731
O       -0.24360477       6.05470905       0.02507659      -1.10229046       0.47711285       0.34823864
O       -0.50811287       4.04423241       6.55472828      -0.75865367       0.44875491      -0.48383920
O        0.13023618       4.13578208       1.98340823      -0.35647592      -0.03339850       0.26014462
O        2.24605503      -0.21773834       0.25218082       0.55968430       0.38550394       0.00230312
O        6.16353841       0.53272457      -0.00571302      -0.41342402       0.74987171      -0.32140844
O        4.53549276       6.68885584       0.18512047       0.41411998      -0.50493167       0.69022743
O        4.01531898       1.98214698      -0.22852275       1.34432499      -0.19303743      -0.25623428
O        4.32129895      -0.10000847       6.67254838      -0.00433647       0.66074525       0.51358813
O        4.43148575       0.14633679       2.07840834       1.03105230      -0.34909397       0.03802143
40
Lattice="8.55493642573103 1.1896845407485301e-18 1.1524189749062779e-18 4.733129980712922e-17 8.554936425730729 5.088094451451795e-14 2.072802690253161e-17 4.4607251312774534e-14 8.554936425731402" Properties=species:S:1:pos:R:3:momenta:R:3 group=nb0.25_md x=0.25 dopant=Nb pbc="T T T"
Ba       2.24833695       1.91002130       2.30787836      -1.80288366       0.00553265       0.22067066
Ba       6.41997995       6.34296358       6.57899979       0.68919151       1.24479903      -0.03289161
Ba       6.52082197       6.29022164       2.19121740       3.40819994      -0.41449389       2.08146180
Ba       2.19998224       1.98891226       6.43867648      -1.22908590      -0.37094982      -0.21056884
Ba       6.49438014       2.10682082       6.50905313      -1.39314225       0.16000017      -0.13924200
Ba       2.06783051       6.26140695       2.45484967       0.78267139      -1.34539641       1.55886352
Ba       2.29790970       6.55608722       6.50019116      -0.61452659       4.45215140      -2.68366253
Ba       6.65277732       1.99605716       2.29858061      -0.36790823      -0.77057653       2.71172079
V       -0.03335041      -0.02199441       4.36656621      -0.45759763       0.19402407      -0.14460860
V        0.03321477       4.21541976       0.16952203      -0.20369652       0.46056696      -0.81893424
V        4.42652412      -0.07493529      -0.03161127       0.10689001      -0.87110102       1.42731214
Nb       4.36370143       4.19790614       4.36091790      -1.04922435       0.39796300      -0.31081018
Bi       0.14939968       0.02757551       0.08095054       1.93823540      -3.12035534       0.96997248
Bi       4.36995662       4.08240292       0.18777214       1.69087881       0.20274427      -0.47105064
Bi       4.42216501      -0.04620102       4.10570885       1.14710442      -2.20249335      -1.94951641
Bi       0.03612849       4.23153717       4.50609714      -0.16739787       1.67261508      -0.99272039
O        2.30683141       4.17391829       4.64569053      -0.63199405      -0.44058562      -0.35134669
O        6.21953788       4.09599613       3.86542875       0.37757599      -0.74963391       0.81749079
O        4.28703638       2.11217973       4.59515428      -0.08976489      -1.15817603       0.14986774
O        4.24841229       6.16103341       4.11976658      -0.37734821      -0.01646217       0.59114044
O        3.88167485       3.78210047       2.33224961       0.59018259      -0.46861413       0.28399435
O        4.67840866       4.29666155       6.23636784       0.04871266       0.11067092      -0.44900530
O        6.58115675      -0.11633119       4.46986484       0.61447439      -0.19998739       0.82309776
O        1.81536550      -0.09942770       4.39495435       0.43033115       0.95969847       0.36650298
O        0.12775706       6.39763838       4.48255660       0.32636008      -0.59282091       0.40186109
O       -0.14704545       1.78864966       4.38841112      -0.68900988       0.63087718      -0.09382780
O       -0.00187484      -0.23677765       2.49591042      -0.79477211      -0.64687807      -0.58200864
O        0.03875682      -0.06145644       6.45510683       0.08079175      -0.14458846       0.76899320
O        6.45585255       3.96859340       0.40275581      -0.44692994      -0.24958311       0.65829130
O        1.70983354       4.36780728      -0.31228350       0.87346350       1.10282814      -0.07076610
O        0.17474498       2.28090929       0.12643564      -0.55774784      -0.54997916      -0.40548884
O       -0.32578541       6.00587750       0.13757620      -0.21519283       0.45148758       0.41900350
O       -0.48576305       4.26884401       6.60993789       0.41666048       0.41137835      -0.25034350
O        0.26661769       4.21419162       1.99604709       0.77263461       0.27563190       0.75115601
O        2.41037728      -0.10768394       0.18728739       0.51554490       0.36873340      -0.21388364
O        6.26943493       0.21671013      -0.03765468       0.68438945      -2.25254410      -0.42847387
O        4.64627294       6.75476756       0.16699382      -0.10944512       0.07841664      -0.39583282
O        4.06547077       2.00672932      -0.06591152      -0.65048676       0.14786823       0.54328400
O        4.17581206      -0.18086105       6.66739663      -0.83902810      -0.61204124      -0.93949816
O        4.59110761       0.17486118       2.01885971       0.16922260       0.56165719       0.50786246
40
Lattice="8.55493642573103 1.1896845407485301e-18 1.1524189749062779e-18 4.733129980712922e-17 8.554936425730729 5.088094451451795e-14 2.072802690253161e-17 4.4607251312774534e-14 8.554936425731402" Properties=species:S:1:pos:R:3:momenta:R:3 group=nb0.25_md x=0.25 dopant=Nb pbc="T T T"
Ba       2.21312315       1.92931201       2.08035357      -9.10577015      -3.58164645      -1.95233914
Ba       6.38037609       6.44445308       6.18823360       1.20140649      -5.91763429      -5.49133086
Ba       6.50491057       6.40093578       2.07542937       0.74488703       1.48628337      -1.68145592
Ba       2.09316088       2.18605456       6.65874514       1.43319891       3.45655231      -0.61651662
Ba       6.46681383       2.20980286       6.60630605      -1.62727156       5.70434554      -0.96219949
Ba       2.29065900       6.43064317       1.83453844       6.90608703      -0.02368059       1.17048478
Ba       1.96410009       6.44080786       6.31870658     -11.12023231       0.98191531       0.07165566
Ba       6.49876523       1.93449416       2.17953896       0.09839747       0.32177248       0.40422895
V        0.10423091      -0.06248543       4.17502376      -1.80155115       0.52039911       2.36921214
V        0.10883834       4.21499377       0.21847227       0.05408964      -0.29685344      -1.89070848
V        4.45941620      -0.02958235      -0.06497095       2.40139076      -0.55856636       0.13540319
Nb       4.22553025       4.23115156       4.25062931      -2.03127844      -1.05215089       1.54563696
Bi      -0.01141103      -0.09415529      -0.26005262       3.65579155      -2.54503409       5.56617578
Bi       4.52041687       4.19802039       0.00168541      -0.78443650       1.59234086      -2.00924334
Bi       4.30896420       0.12458219       4.47062688      -0.30232716      -4.01878360      -2.35915574
Bi      -0.00262822       4.28272976       4.27756112       1.52545342       7.46478722       3.19810757
O        2.33341498       4.00556881       4.30290887       1.78841361      -1.67802755      -1.19852451
O        6.31909649       4.34614209       3.88455903       1.55016887      -0.66559110      -0.36105035
O        4.64950376       2.21121980       4.64704425       0.02591420      -1.59846904       0.57790782
O        4.40298277       6.14563764       4.05082988       0.09350360       0.85795507       0.96885100
O        4.02907042       4.21968412       2.14450996       0.29518801       0.03107246       1.10530521
O        4.43656975       4.45251984       6.13918095       0.83798778       0.33839538       0.87609865
O        6.43863613      -0.12217054       4.28637150       2.38147122      -0.03854996      -0.16540188
O        1.96241872       0.18568937       4.33173668       1.13976050       0.58776684       0.29691416
O        0.03316815       6.62614137       4.32799531       0.50417217      -1.99629902      -0.17892162
O       -0.11907164       1.94918516       4.25858468       0.26347129       1.90507470       0.15883961
O       -0.32966865      -0.05047236       2.33630535      -0.43591136       2.33212190      -0.19959917
O       -0.34419986       0.08715571       6.32785788      -1.28991506      -0.30228659      -0.61470776
O        6.73984598       3.99369478       0.31725532       2.05250821       1.29363703       0.20821946
O        1.90598673       4.27975352      -0.26877491      -0.80918603       0.31836525      -0.12902562
O        0.05384588       2.17165906      -0.30943573      -0.20177381      -1.41788437       0.08385772
O       -0.12166884       6.17365442      -0.01970289      -0.06352629      -0.84530389      -0.02635096
O       -0.08984662       4.46376196       6.53882999       0.00606690      -2.29555752       0.77834122
O        0.35249117       4.05143225       2.01435826       0.73046216      -0.53182160      -0.41646060
O        1.96503057      -0.16527063      -0.52192429      -0.62176251      -1.44445264      -1.27568168
O        6.22986752       0.15279276       0.19777524      -0.09866412      -1.12623306      -0.24830212
O        4.36592520       6.60262532       0.16578179      -0.32172661      -0.46464507      -0.92894963
O        4.18484621       1.74342726       0.03009661       0.32183285       0.39114887       0.13359544
O        4.39154341      -0.26817316       6.72086671       1.34995110       0.03229773       0.11195197
O        3.88395472      -0.08046513       1.85774754       1.02633604       1.20740524       1.63355917
40
Lattice="8.55493642573103 1.1896845407485301e-18 1.1524189749062779e-18 4.733129980712922e-17 8.554936425730729 5.088094451451795e-14 2.072802690253161e-17 4.4607251312774534e-14 8.554936425731402" Properties=species:S:1:pos:R:3:momenta:R:3 group=nb0.25_md x=0.25 dopant=Nb pbc="T T T"
Ba       1.98436144       1.88467718       2.03974822      -6.00381327       0.23133079      -0.48356152
Ba       6.38977023       6.26994925       6.08591745      -0.82197291      -5.07705913      -0.46129012
Ba       6.53419240       6.45178903       2.04550021       1.27152075       1.26755773      -1.04164808
Ba       2.10634912       2.26119421       6.58206597       0.58913214       1.65746316      -4.14276994
Ba       6.48896467       2.33866462       6.51806778       1.37832177       2.10042384      -3.45475474
Ba       2.45669510       6.39405156       1.91155110       5.18729894      -1.98403491       3.93235861
Ba       1.68282058       6.43283211       6.34198467      -6.74907346      -0.14419086       0.81498527
Ba       6.49800657       1.99465470       2.22542538      -0.80748393       3.12413059       1.14823098
V       -0.09624718       0.12897239       4.26987675      -0.18498417       3.25710524       1.11139795
V        0.18611415       4.25703260       0.03899060       1.65177228       0.13692800      -2.18815377
V        4.47745291      -0.11406981      -0.04101150      -3.07599440      -0.10295994      -0.39978212
Nb       4.26772031       4.22343718       4.28648715       2.47172625      -1.55221583      -0.55926865
Bi       0.04256240      -0.11991172      -0.13633781       3.34295515       1.54166697       4.23239673
Bi       4.46767217       4.24685574      -0.00344711      -3.55023423       3.07641927       2.01644140
Bi       4.28060639       0.00769494       4.37803941      -4.50771959      -6.11259692      -5.43185210
Bi      -0.00375453       4.34728449       4.33159732      -0.99804516      -0.19086753       2.29199772
O        2.40821753       3.65482320       4.31138018      -0.26609302       0.27676378       1.41196654
O        6.44850470       4.17430499       3.90814387      -0.37568781       0.33006869       0.68123455
O        4.68605469       2.32827872       4.53802764       0.50664163      -0.46021046      -1.18201406
O        4.12936715       6.19911348       4.25817357      -1.95320027       0.11853296       0.23485195
O        4.24198470       4.11093652       2.36897576       1.02917984      -0.11793451       1.15043256
O        4.57984754       4.47294477       6.28774882       0.65638733      -0.66553562      -0.67384808
O        6.70519930      -0.27401464       4.10229889      -2.39294968      -0.68538631      -1.35156321
O        1.87811386       0.13885435       4.47566952       0.71490519      -0.45997721       1.56495022
O        0.33554082       6.69194238       4.15716428       1.26151345       1.77485543      -1.27453990
O       -0.03925415       2.06505288       4.31634038      -0.20159463      -2.17781695       0.12421629
O        0.24487497       0.22321405       2.42681622       3.04218564      -1.20587546      -1.02149690
O       -0.34229315      -0.19580750       6.29782885       1.72582810      -0.71652755       1.64701399
O        6.65319283       4.18831691       0.26839895      -1.81114137      -0.21184074      -0.66968819
O        2.12032586       4.34789348      -0.26447135       0.76626178       0.11138202      -0.94415284
O        0.15235891       2.12910886      -0.00389003       0.77216338       0.81341712       1.09893511
O       -0.00665002       6.03231625       0.07113744       0.67966224       0.90074381      -0.65740596
O       -0.15694420       4.01868480       6.45312595       0.22326171       0.09817830       0.11537022
O        0.48640767       4.16483120       1.72394327      -0.20072069       0.62943123      -0.19219962
O        2.45981387      -0.27588095      -0.44972403       2.21371465       0.30741607       1.95599038
O        6.33692658      -0.16539681       0.24332055       1.17737923      -1.18256260       0.44515253
O        4.40553934       6.46479399       0.03547323       0.82422382       0.49958524       0.88924177
O        4.16655268       1.85262758      -0.13623318       0.36671051      -0.59934029      -1.13066525
O        4.67760377      -0.13844624       6.65119397       1.56309775       0.72080888      -0.29522485
O        4.29989948       0.11158777       1.99738067       2.12348319      -0.78401969      -0.52374351
40
Lattice="8.55493642573103 1.1896845407485301e-18 1.1524189749062779e-18 4.733129980712922e-17 8.554936425730729 5.088094451451795e-14 2.072802690253161e-17 4.4607251312774534e-14 8.554936425731402" Properties=species:S:1:pos:R:3:momenta:R:3 group=nb0.25_md x=0.25 dopant=Nb pbc="T T T"
Ba       1.86063724       1.94148931       2.03122637      -2.35023087       2.82048084       1.58798735
Ba       6.38348876       6.19392608       6.13747151       0.44866269       1.38125194       3.40904116
Ba       6.59967026       6.47123453       2.04172688       1.79149034       0.11932214       0.43736658
Ba       2.14959439       2.23887052       6.44978553       1.64767586      -1.61735635      -5.00308866
Ba       6.48956237       2.28256530       6.45575656       0.44992651      -4.75506702      -0.56999116
Ba       2.55272388       6.35337329       2.03373632       1.80077413      -0.12352181       5.70920240
Ba       1.59092533       6.45384830       6.36934195       1.55138189       1.91357344      -0.31289254
Ba       6.43067979       2.12365145       2.19982491      -4.26838060       4.62436985      -2.26175039
V       -0.01935880      -0.02782264       4.20248069      -0.16195358      -5.84610711      -2.48676398
V        0.25989981       4.26609193       0.03417237      -0.12944611       0.36658805       1.30646002
V        4.37407711      -0.01518796      -0.19369361       1.95586759       0.97961065      -1.13813902
Nb       4.27755095       4.10559439       4.25592469      -0.61402442      -2.87381869      -1.10962097
Bi       0.04868706      -0.07716983      -0.02944537      -2.09954676       0.87629532       5.81615797
Bi       4.41300583       4.32536912       0.00450023      -1.12904390       4.80645933       0.40840450
Bi       4.23709738      -0.08712501       4.30672598      -1.12918774      -4.78060955      -2.34077943
Bi       0.00258988       4.31683660       4.33937336       2.64574162      -3.13384861      -1.54287313
O        2.43429265       3.97111799       4.55457309       0.04484815       1.09277521      -0.27715344
O        6.38379527       4.56114836       4.24161763      -0.81627389       1.57301538       0.58940475
O        4.71910446       2.11869803       4.32434654      -0.99756311       0.18595223      -1.08351324
O        3.89673642       6.02630680       4.31336228       0.87352557      -1.13879284       0.29321178
O        4.41000080       4.13154195       2.27090869       0.21557485      -0.72683773       0.29672519
O        4.75749852       4.09142429       6.19965509       0.29157062      -2.08060903      -0.39253524
O        6.74613794      -0.14410223       3.92775794       2.74384872       1.04900157       0.22167472
O        2.14702553       0.34056917       4.89150908       0.50107003       1.80854785       0.75921945
O        0.22364189       6.47261956       4.07753865      -1.56662792      -2.80378890       1.01888912
O       -0.33217718       1.96561183       4.39642971      -0.87979913       0.38722984      -0.85825528
O        0.41581752      -0.10385580       2.45737897       0.11703963       0.19145236       1.05019702
O       -0.12807489      -0.14998115       6.21632703       0.10938718       0.82141635      -1.84550379
O        6.66957878       4.03124211      -0.00082431       0.92721088      -0.15688043      -0.89177790
O        1.91108329       4.34632505      -0.56072055      -0.51811914       0.07215683      -0.11652374
O        0.25735472       2.47992160      -0.06754400       0.38019136       0.66490027      -0.94635335
O        0.13782296       6.22638640      -0.15536810      -0.02786725       1.32924978       0.09365231
O       -0.02620975       4.40529998       6.53678692      -0.07004286       1.59999420      -1.07853417
O        0.38816323       4.32581570       1.84773617      -0.22788011       0.67215733      -0.07060602
O        2.55915440      -0.35819641       0.09112040      -0.68176685      -1.17519116       0.83994631
O        6.68540247      -0.07601081       0.26677797       0.04280026       1.85978120       0.02640543
O        4.67988870       6.41508768       0.26535723       0.38047178      -1.05686108      -0.19206050
O        4.46397081       1.73853589      -0.21608329       1.40322105       0.71803071       0.36166562
O        4.92755310      -0.17697405       6.52254223      -0.91557297      -0.98074760      -0.40865479
O        4.56355152      -0.03947036       1.82873580      -0.22417118      -0.01022722      -0.41907003
40
Lattice="8.55493642573103 1.1896845407485301e-18 1.1524189749062779e-18 4.733129980712922e-17 8.554936425730729 5.088094451451795e-14 2.072802690253161e-17 4.4607251312774534e-14 8.554936425731402" Properties=species:S:1:pos:R:3:momenta:R:3 group=nb0.25_test x=0.25 dopant=Nb pbc="T T T"
Ba       1.98188522       2.25935814       2.02846377       0.83256435       1.63992564      -3.68799596
Ba       6.60899474       6.54891407       6.36739506       0.83812493      -2.25967620       2.90146946
Ba       6.57543426       6.55577461       2.17333004      -0.91391757       3.06305124       0.93756425
Ba       2.20388781       2.10991330       6.37443278      -2.24551513      -0.10822277      -3.65222845
Ba       6.55647786       2.27409906       6.39873107       4.66636653       3.04176427      -0.55244098
Ba       2.07502598       6.76237258       2.08466761      -1.72131357      -0.66330220      -2.97987661
Ba       2.17693974       6.25914107       6.39422148       1.85347214       1.96575302      -1.23665234
Ba       6.43009017       2.23797660       2.02898506      -1.72296133       0.28690483       0.39490202
V        0.14446202      -0.00135737       4.42971427       0.90159403       0.57514455       1.18993925
V       -0.05108485       4.37235167       0.00177125      -2.16091575       0.78709395      -3.27254766
V        4.25119684       0.32315366      -0.13144933       0.36520287       0.37945178      -0.77799334
Nb       4.24403852       4.42402362       4.22045688       1.29484196      -0.13644804       0.49040841
Bi      -0.06406229      -0.00255042      -0.03578285      -1.55273198      -0.57397516       2.28796593
Bi       4.17925122       4.57157834       0.06799133       5.11374956       2.70860452       5.56083212
Bi       4.34393062       0.10342095       4.09008530       2.62481398      -1.16891627      -2.86207793
Bi      -0.01338653       4.13813044       4.20545151      -0.05888275      -4.49288493      -0.13600215
O        2.27608396       4.56700748       4.21643669      -0.49409639      -1.21144264       0.78364319
O        6.36082766       4.41071157       4.30012023       0.08861412      -0.66366860       0.13282317
O        4.12744935       2.39777637       3.85991626       0.33036091       0.99820343       0.64687361
O        4.23878213       6.49905759       4.58569953       1.00887312      -1.67623268      -0.72210952
O        4.22799534       4.80651263       2.33089342      -0.91854882      -0.37858302      -0.70796577
O        4.05338096       4.11793675       6.23167982      -0.97420964       0.32101127       0.51830981
O        6.29253059       0.24916386       4.11591502      -0.13592682       0.38282071       2.15627390
O        1.93339929      -0.15320022       4.82595285      -0.22807161      -0.14133532       0.91748883
O       -0.30838245       6.76755829       4.34320591      -0.93443262       0.77652367      -0.11576587
O        0.08815187       1.98702223       4.45514736      -1.11357999       1.56812362       0.05568613
O        0.16664858       0.26540300       2.64045448      -1.11781323      -1.08945751      -0.00762438
O       -0.44227162      -0.05721202       6.36085661      -0.49421022       0.33854586       0.74423810
O        6.77094873       4.17792485       0.05031323      -0.45039075      -0.69542507       0.06150006
O        2.01782471       4.58221334       0.40989322       0.30351042       0.53609302       0.42842823
O        0.22122526       2.52681423      -0.28334903      -0.17669204      -1.55848294      -1.36493419
O       -0.14724936       6.39202120       0.30213936       0.30319646       1.08853804      -0.98487059
O        0.16193741       4.60170333       6.69631657      -0.98961998       0.85574292       0.34748008
O       -0.01662888       4.13821831       2.09897477       0.30709614       0.55505488       0.02220171
O        2.45732984       0.10780517      -0.19463684      -0.30075328      -1.03820139      -0.33279267
O        6.32030700       0.21938192       0.04029844       1.19595987       0.85417745       0.10520992
O        4.49214480       6.64631881      -0.22402843      -1.21329582       0.04620885      -0.02967604
O        4.10597610       2.07459619       0.17351938       1.19795483       0.98889637       0.15177545
O        4.63795886       0.38186832       6.71553111      -0.93560539      -0.96876852       0.28892295
O        4.13516906      -0.30717931       1.92102280      -1.81364709       0.21325645       0.65943939
40
Lattice="8.55493642573103 1.1896845407485301e-18 1.1524189749062779e-18 4.733129980712922e-17 8.554936425730729 5.088094451451795e-14 2.072802690253161e-17 4.4607251312774534e-14 8.554936425731402" Properties=species:S:1:pos:R:3:momenta:R:3 group=nb0.25_test x=0.25 dopant=Nb pbc="T T T"
Ba       2.01875552       2.33652177       1.90714136       2.20993513       2.81861300      -4.22229094
Ba       6.58479480       6.47368771       6.44404963      -2.21571962      -2.89500983       2.31907475
Ba       6.53168055       6.61777794       2.17930803      -1.03814995       2.22075700       0.36547234
Ba       2.15268251       2.12320911       6.31297056      -1.42479034       1.20034162      -1.56351147
Ba       6.63737624       2.31561985       6.40854611       0.96985262      -0.45982782       0.21253853
Ba       2.02687455       6.69601669       1.98410061      -1.98450802      -4.09479086      -3.79452870
Ba       2.23498718       6.34136098       6.38121492       0.96639729       4.42596102       0.90628776
Ba       6.37185249       2.23241843       2.05264580      -2.21787304       0.32083633       1.70306863
V       -0.00682691       0.00447515       4.42100565      -4.50161824      -0.24836966      -1.51744111
V       -0.11649509       4.29614848      -0.15677414      -0.02986641      -1.72112343      -0.08023658
V        4.28827335       0.25888590      -0.14526225       0.13187676      -1.51579779      -0.20329455
Nb       4.28421713       4.39144791       4.29518315      -0.15846973      -2.11648786       2.15249435
Bi      -0.08483707       0.01862685      -0.00566537       0.34919745       3.57817366       1.24830413
Bi       4.27504525       4.61982603       0.15356727       3.78069226       2.95141948       3.07782976
Bi       4.37320899       0.07739900       4.06438123       2.41775450      -0.83379849       1.03552569
Bi      -0.00086349       4.13989133       4.21062613       0.37511398       4.09266117      -0.91631857
O        2.08767775       4.26168412       4.32157661      -0.16945423      -0.98103682      -0.18684778
O        6.16146175       4.14062455       4.36832990       0.27582844      -1.12292012       0.55785598
O        4.16715140       2.32099614       3.91212017      -0.50242971      -1.14468938      -0.12942837
O        4.56734571       6.44342428       4.40846594       1.01188317       0.56553500      -0.42662351
O        4.22944237       4.65916833       2.31821429       0.20926913      -0.41408274       0.69039273
O        3.98529358       4.23621311       6.23990569       0.72030672       0.57939801      -0.73169892
O        6.53478875       0.36734280       4.39872707      -0.53180073       0.28595909      -0.14516809
O        1.81022975      -0.06569518       4.78068932       0.72851095       0.31098330      -1.18368376
O       -0.28622103       6.78623733       4.28833281       0.68001260      -1.50697852       0.26578999
O       -0.02460373       2.02808823       4.58829549       0.75912905      -0.68859655       0.49574593
O        0.14017916       0.16041204       2.53137080       0.71703579       0.38257182      -0.49499048
O       -0.21170234       0.10096503       6.36461135       1.17398004      -0.04862837       0.52192492
O        6.63748419       4.29088375       0.10073530       0.16149871       1.14077458      -0.19606935
O        1.99363496       4.61861784       0.16529505      -0.45004487      -0.76841562      -1.71808232
O        0.16686131       2.51895949      -0.34380709      -0.35913290       1.60002102       0.52730577
O       -0.18908518       6.34990707       0.12118623      -0.61943404      -0.69990940       0.10700625
O       -0.02256069       4.75721916       6.64078466      -0.55375997      -0.46055957      -1.64994989
O       -0.10576548       4.14487769       2.01239035      -0.46755004      -0.65972438      -0.13304884
O        2.47505373      -0.04985044      -0.15206707      -0.61443004       0.64341194       0.74494479
O        6.25655108       0.33776614       0.39510548      -0.49111214      -1.04148986       1.61158546
O        4.38052410       6.79768656      -0.31219000       0.96881422      -0.16965850       0.18507819
O        4.35839411       1.96535936       0.27090681      -0.03875411      -0.71700375      -0.04948644
O        4.37513765       0.36058131       6.63426324      -0.14413233       0.98553679      -0.15630286
O        4.03770201       0.00154324       1.98644906       0.42284818       0.96292127      -0.74544817
40
Lattice="8.609289656821662 6.559586646510601e-18 9.149070565042882e-18 1.2900057905275507e-16 8.609289656824972 4.841096541068418e-13 -3.2750650659967843e-16 3.594578518291876e-13 8.599437424488004" Properties=species:S:1:pos:R:3 group=nb0.5_min x=0.5 dopant=Nb pbc="T T T"
Ba       2.15232241       2.15232241       2.07808102
Ba       6.45696724       6.45696724       6.52135640
Ba       6.45696724       6.45696724       2.07808102
Ba       2.15232241       2.15232241       6.52135640
Ba       6.45696724       2.15232241       6.52135640
Ba       2.15232241       6.45696724       2.07808102
Ba       2.15232241       6.45696724       6.52135640
Ba       6.45696724       2.15232241       2.07808102
V        0.00000000       4.30464483      -0.00000000
V        4.30464483      -0.00000000      -0.00000000
Nb       4.30464483       4.30464483       4.29971871
Nb       0.00000000       0.00000000       4.29971871
Bi      -0.00000000       0.00000000      -0.00000000
Bi       4.30464483       4.30464483       0.00000000
Bi       4.30464483       0.00000000       4.29971871
Bi       0.00000000       4.30464483       4.29971871
O        2.30021220       4.30464483       4.29971871
O        6.30907745       4.30464483       4.29971871
O        4.30464483       2.30021220       4.29971871
O        4.30464483       6.30907745       4.29971871
O        4.30464483       4.30464483       2.29259860
O        4.30464483       4.30464483       6.30683882
O        6.60485703       0.00000000       4.29971871
O        2.00443263       0.00000000       4.29971871
O        0.00000000       6.60485703       4.29971871
O        0.00000000       2.00443263       4.29971871
O        0.00000000       0.00000000       2.29259860
O        0.00000000       0.00000000       6.30683882
O        6.65197728       4.30464483       0.00000000
O        1.95731237       4.30464483       0.00000000
O        0.00000000       2.34733246       0.00000000
O        0.00000000       6.26195720       0.00000000
O        0.00000000       4.30464483       6.66897389
O        0.00000000       4.30464483       1.93046353
O        2.34733246       0.00000000       0.00000000
O        6.26195720       0.00000000       0.00000000
O        4.30464483       6.65197728       0.00000000
O        4.30464483       1.95731237       0.00000000
O        4.30464483       0.00000000       6.66897389
O        4.30464483       0.00000000       1.93046353
40
Lattice="8.609289656821662 6.559586646510601e-18 9.149070565042882e-18 1.2900057905275507e-16 8.609289656824972 4.841096541068418e-13 -3.2750650659967843e-16 3.594578518291876e-13 8.599437424488004" Properties=species:S:1:pos:R:3:momenta:R:3 group=nb0.5_md x=0.5 dopant=Nb pbc="T T T"
Ba       2.16062885       2.19489525       1.93024861       1.66043982      -0.21299710       0.42657979
Ba       6.49252033       6.28555633       6.52961238       0.01795776      -1.23180764       1.44577576
Ba       6.44527076       6.47245253       1.88931599       2.21336205       5.86969227       0.58923983
Ba       2.16300573       2.26746147       6.44309911       0.56969872      -0.69015853       1.10243209
Ba       6.34768693       2.18990081       6.65277816      -2.54710087      -1.49813505       2.27860653
Ba       1.93956008       6.62328894       1.96837835       0.54661784      -0.49047538       1.46596303
Ba       2.09482219       6.60486718       6.42986769      -0.01283064      -0.29637862       0.28833847
Ba       6.41438238       2.04255525       2.16152042       0.15500302      -2.27718351       0.72081301
V       -0.01389731       4.35128933       0.03792102      -0.03740352       0.29269665      -0.90724475
V        4.35916537      -0.09885843      -0.12653488       0.45557339      -0.27781272       0.65278865
Nb       4.29586574       4.23796001       4.23484332      -0.76148213       1.38930414      -2.24315776
Nb      -0.07031892       0.05790741       4.27980941      -2.90936080       1.58763077      -1.33351576
Bi      -0.01139863       0.17672121      -0.00891412      -1.92524734       1.21510516      -1.82663252
Bi       4.16307219       4.33865287      -0.02260998      -0.90959499      -0.31234144      -3.13140534
Bi       4.20762371      -0.18777037       4.21080631       3.26054973      -3.71979204       0.41818029
Bi       0.02825801       4.28287518       4.36685676      -0.35776809      -1.35146385       1.29147367
O        2.21332455       4.58918645       4.42966042      -0.41795103       0.76945397       0.08782905
O        6.13737486       3.79419703       4.12119385       0.23137477      -1.23696304      -0.24460504
O        3.87493437       2.30433031       4.45133141      -0.65619235       0.55985405      -0.16995128
O        4.41551006       6.31222889       4.39735567      -0.26840986      -0.06579580      -0.19563025
O        4.16175566       4.22253566       2.20524663      -0.37052021       0.29564530      -0.61805223
O        4.44589168       4.30801358       6.27063621       0.00214856      -0.78220175      -0.10891498
O        6.74651181       0.55711118       4.50420814       0.31256609      -0.24436386       0.38513032
O        2.02819537      -0.13932681       3.89741789      -0.32361653      -0.34981033      -1.25400397
O       -0.36942517       6.68059733       4.33281181      -0.21944219       0.28464988      -0.12903914
O        0.28704305       2.07105718       3.87547850       1.07557931       0.85699332      -1.13662028
O       -0.24993945      -0.17246046       2.26697150      -0.23846255       0.03808029       0.11334037
O        0.35148216       0.18714403       6.27207805      -0.32835917       0.00448541      -0.54338365
O        6.76905829       4.48384561      -0.02956783       0.05455575       0.69112832      -0.35018259
O        1.98333216       4.40768900      -0.22705176      -0.21830124      -0.27547139       0.19892336
O        0.06039168       2.54157950       0.19995211       0.03822123       1.13953531       0.30019365
O        0.09200523       6.45628510      -0.31906553      -0.96903391       0.16807506      -0.52643243
O       -0.07038344       4.14040840       6.54889632       0.85992182       0.20929696       1.04510608
O        0.10940253       4.72418705       1.81967486       0.20468437       0.39632712       0.90615264
O        2.27987839       0.04023341       0.17074933       0.43248599      -1.30935934       0.12703529
O        6.20123224      -0.02881625      -0.30598535       0.01866752       0.06195284      -1.07044018
O        4.25591779       6.75159621       0.13451652      -0.48145669       0.48634218       0.05539436
O        4.34407326       2.08892081      -0.19047582      -0.07891360       0.68305251      -1.31902305
O        4.17763854      -0.10188097       6.63616657      -0.11408845       0.13734953       0.31823823
O        4.69833432       0.09787452       1.94023777      -0.12657952       0.62137606       0.78327360
40
Lattice="8.609289656821662 6.559586646510601e-18 9.149070565042882e-18 1.2900057905275507e-16 8.609289656824972 4.841096541068418e-13 -3.2750650659967843e-16 3.594578518291876e-13 8.599437424488004" Properties=species:S:1:pos:R:3:momenta:R:3 group=nb0.5_md x=0.5 dopant=Nb pbc="T T T"
Ba       2.22567201       2.18881925       1.97388689       2.62106210      -1.09676529       1.95466213
Ba       6.48505343       6.29135828       6.54479615      -0.98212073       1.82892868      -0.45368941
Ba       6.50908577       6.59914770       1.91355942       1.43085395       3.63028927       0.99253426
Ba       2.19089915       2.23506227       6.46175546       1.01068654      -2.04147817       0.79006459
Ba       6.27772068       2.17282943       6.66542462      -1.45756384       0.42878149      -1.26084441
Ba       1.98401970       6.58544904       2.01924028       2.59815460      -1.74190631       1.25159475
Ba       2.07799168       6.57822762       6.43154002      -1.01935036      -1.41133618       0.09234563
Ba       6.41862552       1.99892099       2.18265138       0.27369258       0.03400741       0.14767738
V       -0.03696380       4.41281941       0.03791224      -0.64923502      -0.46343588       1.02461836
V        4.28250347      -0.08317371      -0.10952841      -2.47559434      -0.33594130      -0.07191581
Nb       4.23683097       4.21938448       4.18273487      -0.53749500      -1.29157478      -0.21818797
Nb      -0.15078753       0.10085564       4.25830554      -0.30667986       0.70348077      -0.12532363
Bi      -0.02017233       0.13969356      -0.05554404      -0.16837465      -4.60916812      -2.44970134
Bi       4.16923224       4.31290127      -0.09333383       0.65709563      -1.36924856      -4.63470997
Bi       4.25543391      -0.18964304       4.21523591       1.82135454       2.43790341      -0.28420007
Bi       0.02894238       4.26438826       4.37937996       0.31131159       0.43027452      -0.54884857
O        2.16951447       4.77629763       4.43474263      -0.06073724       0.34747696       0.02609232
O        6.20136777       3.90273238       4.08900853      -0.32785107       1.46320031       0.31692465
O        3.69247290       2.35464444       4.22795616      -0.44567802      -0.64701828      -0.61013692
O        4.56720093       6.28432011       4.18084062       1.51573150       0.54185420      -1.05932385
O        4.03599973       4.29408567       2.27474536      -0.55657091       0.03224559       0.16939102
O        4.46784461       4.31905420       6.28142330      -0.08534524       0.62566494       0.07536400
O        6.52981250       0.50859584       4.50364869      -0.07416904       0.09209786      -0.77452342
O        2.03187994      -0.27680781       3.87042092      -0.90664214      -0.31588519       0.96595721
O       -0.37774153       6.83142236       4.41754141       0.05343153      -0.02316428       0.32876179
O        0.41345902       2.12143010       3.87430174      -0.74109885      -0.70639800       1.19997743
O       -0.37515274      -0.08699494       2.09412779      -0.45448355       0.61448981      -0.12740287
O        0.35203666       0.31979668       6.06582921       0.31648782       1.34314392      -0.25180059
O        6.77373920       4.59273036      -0.02048586      -0.07131198      -0.00380274       0.39811554
O        2.02062027       4.41766790      -0.14015261       0.07903747       0.64507964       0.17301326
O       -0.06923979       2.58451759       0.27127260      -0.94013697       0.15766314       0.04928208
O       -0.11897467       6.64554970      -0.36207756      -0.11757415       0.18745877       0.11342606
O        0.01837601       4.17848769       6.62093775      -0.24807101       0.15218154      -0.55638095
O        0.05653470       4.76224626       1.73506538      -0.07716307       0.37069454      -0.67766572
O        2.31181198       0.06006622       0.17430004       0.12103642       0.97468366       0.11211513
O        6.29580841       0.00671752      -0.29414695      -0.49509807       0.35706454       0.84073452
O        4.23392443       6.76731638       0.14351477       0.48672742       0.23083093      -0.15378786
O        4.23503116       2.09848632      -0.21986285      -0.89124294      -0.65632120       1.27421641
O        3.97899973      -0.07444250       6.73153522      -0.74161992       0.14289017       0.39818803
O        4.56108831       0.16163720       2.02770537      -0.46472062      -0.00924080      -0.38477506
40
Lattice="8.609289656821662 6.559586646510601e-18 9.149070565042882e-18 1.2900057905275507e-16 8.609289656824972 4.841096541068418e-13 -3.2750650659967843e-16 3.594578518291876e-13 8.599437424488004" Properties=species:S:1:pos:R:3:momenta:R:3 group=nb0.5_md x=0.5 dopant=Nb pbc="T T T"
Ba       2.27109662       2.13637960       2.04896146      -0.20464885      -1.82648581       3.36023769
Ba       6.45003118       6.35296560       6.53018206      -1.61283944       2.34819551      -1.16178766
Ba       6.49330132       6.65401722       1.94105085      -2.07457257       0.05768195       1.09592672
Ba       2.20778101       2.20170608       6.48016211       0.43825940      -0.27813480       0.70351730
Ba       6.25768969       2.16891575       6.63035786       0.47125957      -0.26098235      -1.95151098
Ba       2.08218203       6.52575018       2.03089366       3.84680683      -2.33096051       0.06690906
Ba       2.02575311       6.54130614       6.42975144      -2.05368005      -1.09972165      -0.26933229
Ba       6.41320939       2.04426504       2.15428045      -0.96938047       2.64927848      -1.77646948
V       -0.11988373       4.33419182       0.10139484      -0.78104414       0.30602932       1.11048210
V        4.12853589      -0.05528269      -0.05075668      -0.16910616       0.98390340       0.86124574
Nb       4.22807180       4.20880998       4.15946605       0.20249913       2.20385811      -1.21292314
Nb      -0.06253500       0.10303070       4.24234422       3.81795605      -1.54282755       0.52958049
Bi      -0.02321511       0.05659879      -0.10439694      -0.76947157      -4.21098914      -2.74004853
Bi       4.18468736       4.28146172      -0.15683845       0.56920005      -1.63193320      -1.08949179
Bi       4.26194601      -0.13133664       4.17664465       0.41624840       3.11101625      -3.10512522
Bi       0.03570533       4.27708240       4.35560247       0.49413703       0.97688477      -1.49729321
O        2.28277984       4.77396704       4.44497066       0.29800576      -0.19114907       0.08655309
O        6.14428069       4.01427655       4.16658216       0.56480087      -0.73188602       0.15266969
O        3.87387927       2.34794855       4.29083164       1.21783852      -0.24262399       0.79530780
O        4.87070386       6.47095396       4.03469368       0.36892167       0.90120505      -0.07816948
O        3.92379662       4.33381548       2.20668758      -0.07935713       0.01409676      -0.18054367
O        4.31208770       4.38761015       6.21147036      -0.87889118       0.14065018      -0.20035284
O        6.58904489       0.55980288       4.40854526      -0.71748025       0.10272012       0.37087136
O        1.90137711      -0.29455081       4.08523929      -0.09645876       0.23289261       0.70888059
O       -0.41143796       6.79040669       4.51395100      -0.04766759       0.81292809       0.59972808
O        0.16980205       2.16153958       4.05246522      -0.30660912       0.41838854       0.18130719
O       -0.25724971       0.08054566       2.28784083       0.98949290       0.58678216       0.95993444
O        0.20183082       0.54860536       6.32082695      -1.53681795      -0.19481578       1.32946058
O        6.67839256       4.54913981      -0.00152098      -0.01086392      -0.08956452      -0.00184379
O        1.97768634       4.52841307      -0.19810863      -0.70968477      -0.27179739      -0.48092382
O       -0.18408106       2.58387142       0.18482785       0.43687393      -0.56922148      -0.36193784
O        0.07534564       6.50660825      -0.28919708       0.96506578      -0.12936563       0.11379929
O       -0.15446996       4.19506016       6.50086888      -0.94080164      -0.07683396       0.53429024
O        0.12528145       4.83518118       1.83420109      -0.13634613      -0.79815922      -0.60629147
O        2.25188479       0.18983202       0.29143244      -0.99445117      -0.34706153       0.11134160
O        6.04281425       0.16641012      -0.14004589      -0.57680014       0.73302207       0.18298256
O        4.26563209       6.76800549       0.08208318      -0.76411419       0.37206075      -0.37559264
O        4.12893520       2.10495916       0.11417876       0.14005450       0.33040721       0.47725182
O        4.00359776       0.02755881       6.72833455       0.42087738       0.40749661       0.36331523
O        4.40506350       0.14893442       2.05715831      -1.07538438       0.10538727       0.59311241
40
Lattice="8.609289656821662 6.559586646510601e-18 9.149070565042882e-18 1.2900057905275507e-16 8.609289656824972 4.841096541068418e-13 -3.2750650659967843e-16 3.594578518291876e-13 8.599437424488004" Properties=species:S:1:pos:R:3:momenta:R:3 group=nb0.5_md x=0.5 dopant=Nb pbc="T T T"
Ba       1.93958864       1.95154919       1.60616410      -1.43150514       1.46003949      -0.26444671
Ba       6.36521120       6.69129154       6.32040193       4.33967574      -0.69591182      -6.51842511
Ba       6.55440164       6.24430120       1.98514734      -0.93052677       4.00578010      -0.48812928
Ba       1.95781603       2.16374138       6.13463685       6.28907292       0.48782963      -2.16321487
Ba       6.42569980       2.16110279       6.68342094       2.49324626      -0.44998489      -3.50309126
Ba       2.07829228       6.04657945       2.06400111       0.20820400       0.89740189       4.36395566
Ba       2.03178978       6.49831457       6.30611878      -3.19033892      -3.33813481      -2.53979877
Ba       6.12166174       2.09013089       1.99772896       3.25072488       1.94586483      -0.88838828
V       -0.17445406       4.18821941      -0.03568920      -1.95227123      -0.78173357       1.66693882
V        4.14075977      -0.24734109       0.02145504      -0.16982926       1.17971130       0.36857381
Nb       4.21050236       4.40675261       4.39828240       1.01350415      -1.98088152      -1.30660080
Nb      -0.21671316      -0.06568249       4.16645987      -1.85205041      -2.87953639       2.74273794
Bi      -0.06128746      -0.19013316      -0.06499732      -4.40036773       0.37606846       2.66025450
Bi       4.03713180       4.26133544      -0.08874351      -5.92710820       1.52724345      -0.69860399
Bi       3.98647780      -0.02588057       4.16764143       1.57061488      -1.12355275       6.58379871
Bi      -0.11045493       4.33333828       4.29881849      -3.60360072       0.83468069       2.05745899
O        2.06417912       3.98133720       4.21757159      -0.80016457      -0.16816732       0.15807192
O        6.13416415       5.10999239       4.41944309       0.58926935      -0.88773649      -1.52446334
O        4.60310478       2.63707487       4.50558587      -1.03790962       0.78586811       0.54355765
O        3.56882103       6.34005269       4.27737255      -0.72908300       0.33956774      -1.64872292
O        4.34276081       4.20616560       2.26686673      -0.79648252       0.53261049       0.55580964
O        4.05223641       4.72407390       6.28358608       0.00351529       0.77128319      -0.83808213
O        6.44426269      -0.17813368       3.95174164       0.26863033       0.88785802      -0.28687363
O        1.87049564       0.24742392       4.39581602       1.03786554      -0.79023171      -0.12639767
O        0.21700895       6.50834880       4.43095360      -3.51198886      -0.70476616      -0.37691431
O       -0.18663526       1.87344277       4.23242171      -0.43918632      -0.15271829       2.61062069
O        0.11290223      -0.31524983       2.20583811       1.49397239      -1.13809472       1.09633631
O       -0.27454727      -0.10707333       6.07622743      -0.55978669       0.10837674      -0.52836331
O        6.62608830       4.48246820       0.13118171       0.65846238      -0.02045522      -0.26481714
O        1.71633611       3.93122272      -0.13503871      -1.37074433      -0.36191363      -2.33921788
O       -0.47079727       2.36997564       0.30892072       0.26620726      -0.58467661      -1.63573075
O        0.18622732       6.23934548       0.10651314      -2.78504931      -0.33389625      -1.51218754
O       -0.16106208       4.16259414       6.64833757       0.71321734       1.24934261       2.82531962
O       -0.03396344       4.20345811       2.05896591       1.48765720      -0.64118075      -0.11385836
O        2.00720086       0.19749918      -0.20268227       1.37262258      -2.98848297      -0.36167046
O        6.01830037      -0.13188381       0.16434141       0.04449982       0.12782920      -0.77070976
O        3.83045359       6.76156421       0.45759735       0.52818872      -0.24282001      -1.12950277
O        4.18869063       2.18166758      -0.27788354       0.11672981       0.35837720       0.32427797
O        4.32364859      -0.27899956       6.83402375       0.28519849      -0.60483471      -0.30690211
O        3.90346871       0.35712626       2.11867472      -0.90424954       0.16470036      -1.29345330
40
Lattice="8.609289656821662 6.559586646510601e-18 9.149070565042882e-18 1.2900057905275507e-16 8.609289656824972 4.841096541068418e-13 -3.2750650659967843e-16 3.594578518291876e-13 8.599437424488004" Properties=species:S:1:pos:R:3:momenta:R:3 group=nb0.5_md x=0.5 dopant=Nb pbc="T T T"
Ba       1.92283597       2.01063644       1.66919179       1.37615231       1.06209719       4.91995855
Ba       6.43218838       6.60403248       6.20460161      -0.74320346      -4.36785465      -0.35060344
Ba       6.54726533       6.38067001       2.00089186      -0.40396233       5.18385265       0.55641349
Ba       2.12405830       2.17950396       6.10034535       4.81175271       0.62555211       0.71588900
Ba       6.44279820       2.14239767       6.55198728      -1.27323865      -0.94667572      -5.24910723
Ba       2.02772956       6.11972213       2.21107383      -2.81440488       5.48007184       3.09527010
Ba       1.92954791       6.43084661       6.27266945      -2.68694481      -1.49932080       0.32560347
Ba       6.19635432       2.13203432       1.95851837       1.43481872       0.07542874      -2.48699413
V       -0.35046824       4.12130881       0.00676277      -3.34054300      -0.21630290      -1.60574572
V        4.17132475      -0.19164459      -0.02048496       0.76136830      -1.86595997      -1.01391082
Nb       4.26753828       4.36660712       4.27382924      -0.74802516      -2.19495849      -2.15660979
Nb      -0.22402107      -0.05206096       4.22220856       2.10616939       3.18178165       1.02535215
Bi      -0.11504309      -0.20293056      -0.01100607      -2.16115661      -2.67582413       1.17543785
Bi       3.93369350       4.25029977      -0.14527536      -2.06192179      -0.93941154      -3.35149707
Bi       4.03141795      -0.05918544       4.27534018       1.64989271      -0.03599528       4.48041626
Bi      -0.16767073       4.30726022       4.31828760      -1.23653914      -2.54181310       0.23162694
O        2.09764532       4.17982037       4.39620884      -0.18343020       1.77900193       0.94917998
O        6.09148214       4.72139514       4.13022847       1.85723585      -2.03075988      -0.68874848
O        4.53036011       2.44560041       4.75773746      -0.59318952       0.87682509       0.10258282
O        3.76090318       6.48941897       3.92647251       2.61125871      -1.27043248       0.10168762
O        4.06586514       4.36211184       2.37368937      -1.33185612      -0.18318640       0.24268181
O        4.14423298       4.86424027       6.27729738       0.69373912      -0.42540888      -0.79071371
O        6.51003404      -0.09063602       3.74385362      -0.10291724      -0.10502260      -1.48897155
O        1.75490819       0.16107357       4.53053709      -1.68069946       0.02804295       1.10927718
O       -0.38803845       6.50052746       4.35955349      -0.61125756      -0.22966050       0.19974345
O       -0.44898583       1.89411328       4.60666515      -0.59250882      -0.13551696      -0.35959922
O        0.33888923      -0.39240338       2.43242069      -0.07695190       1.60982044       1.29660596
O       -0.42656589      -0.19934880       6.44164561       0.05439444      -0.31485364      -0.05484891
O        6.42057318       4.34933353       0.00714734      -0.49009766      -1.11046184       0.48970706
O        1.91935136       4.07412937      -0.23815684       0.15959097       1.15790399       1.04340753
O       -0.44983922       2.25900608      -0.08264322       0.59127113       1.05470338       0.26185421
O       -0.45486879       6.38030470      -0.25793394      -1.41663928       0.25337126      -0.14824548
O       -0.22820929       4.26070297       6.71952622      -1.04108111      -0.66115815      -2.29013031
O        0.05902879       4.28371849       1.98560875      -1.27796168       0.03364278      -1.10557227
O        2.18160785      -0.35092764      -0.41200336      -1.47715064      -0.60243313      -0.58230146
O        6.01714727       0.00552114       0.15416953       0.22335213       0.33281678       0.06921711
O        4.20986056       6.63036800       0.31657194       2.04034319      -0.06734001      -0.30748854
O        4.36906692       2.00896718      -0.21077032      -0.08850454      -0.61278552       0.08581588
O        4.19609646      -0.34777857       6.52667791      -0.38167786       0.40855605      -2.56160962
O        3.94766156       0.29418517       1.71553338       0.71524087      -0.72579146      -0.38777820
40
Lattice="8.609289656821662 6.559586646510601e-18 9.149070565042882e-18 1.2900057905275507e-16 8.609289656824972 4.841096541068418e-13 -3.2750650659967843e-16 3.594578518291876e-13 8.599437424488004" Properties=species:S:1:pos:R:3:momenta:R:3 group=nb0.5_md x=0.5 dopant=Nb pbc="T T T"
Ba       1.96797361       2.05560010       1.81000397       1.83719423       3.15388621       4.09779636
Ba       6.38759654       6.44666286       6.23102661      -2.85509360      -5.63975033       1.48304030
Ba       6.50493280       6.51268701       2.02271889      -3.83650457       2.78348908       0.91682321
Ba       2.19311939       2.18591025       6.16877385       0.59429884      -0.87869606       5.61015341
Ba       6.36847619       2.10221020       6.44393225      -3.95450933      -2.35923196      -2.47675504
Ba       1.93486500       6.28522225       2.30440894      -2.41878155       4.44549670       3.19698210
Ba       1.83739523       6.42231812       6.32285986      -3.35389012       0.52475289       2.82829746
Ba       6.24224642       2.08706920       1.93788160       0.13046182      -2.64361607       2.22383233
V       -0.49793905       4.18459939      -0.12315907       0.97599737       1.91914776       0.60306770
V        4.26232279      -0.24359218      -0.01686239       0.79129819       0.77452409      -1.45791727
Nb       4.22098703       4.31011009       4.23357206      -0.43763777       0.07402703      -2.05267281
Nb      -0.19008979       0.07147087       4.32752631       0.73392872       2.33172919       1.05305431
Bi      -0.11763764      -0.26459810      -0.02372463       1.87783639      -3.04301915      -1.36279087
Bi       3.93475417       4.23584631      -0.24579121       0.03380604      -2.03550182      -4.23437161
Bi       4.09740680      -0.03597740       4.32587741       6.69587563       1.05885180       0.68211824
Bi      -0.19468622       4.24353890       4.29814746      -1.57640267      -2.74686436      -1.32598736
O        2.24065293       4.45675889       4.40531687       0.39912980       1.21688986      -0.49943114
O        6.18139437       4.21292392       3.93551927      -0.93331290      -2.05860399      -0.96732980
O        4.20257852       2.31575977       4.55793630      -1.36966233      -1.46550593      -1.07499248
O        4.48034804       6.37641712       4.11391974       2.65769325      -0.26809587       0.25736780
O        3.81690532       3.90513538       2.19378066      -0.24794718      -1.75537594       0.26626913
O        4.30270191       4.63344861       6.21548711       0.60094483      -1.36735296      -0.59558559
O        6.34458600       0.00749779       3.67623034       1.11907067       1.07562712       1.69926321
O        1.83916895      -0.03075866       4.74051513       0.43550484      -1.26815339      -0.44503526
O       -0.03628567       6.62675498       4.35834972       1.28944865       0.53477192      -0.94460911
O       -0.37285440       2.01266270       4.18363409       0.56735614       0.95097683      -2.65328145
O        0.34903998       0.05791683       2.26145594      -0.82182366       0.76816442      -0.56701626
O       -0.52104822       0.00612788       6.18365535      -1.05392819       1.47853234      -1.15148730
O        6.22233785       4.03402628       0.09648111      -1.88900093      -1.42385498      -1.91930107
O        1.70683595       4.37866735      -0.08097257      -0.44306745       1.58935850      -1.04647913
O       -0.12024418       2.32242878       0.02794536       1.18923387      -1.15126779      -1.35723883
O       -0.53594666       6.10731344      -0.23357408       0.61259479      -0.46783206      -0.63315523
O       -0.51355626       4.11067341       6.36977458      -0.95627576      -0.38761569       0.26933185
O       -0.27306373       4.39491033       1.60108807      -1.00234931       1.39795475      -0.24639795
O        2.02576075      -0.21370325      -0.36262931       0.38344853       0.82652488       0.08549877
O        6.03370410       0.09376064      -0.12131361       0.05657987       1.38625066      -1.63613212
O        4.43958570       6.58350378       0.08732860      -0.04527792       0.02897936      -1.77510750
O        3.84627640       2.11645356      -0.40490548      -2.63109363       0.39094684      -1.46824365
O        4.30038074      -0.19589001       6.50065787       1.00241817       0.44393519       2.52080363
O        3.79304760       0.11685896       1.59540871      -1.30271700      -0.61227935      -0.06484092
40
Lattice="8.609289656821662 6.559586646510601e-18 9.149070565042882e-18 1.2900057905275507e-16 8.609289656824972 4.841096541068418e-13 -3.2750650659967843e-16 3.594578518291876e-13 8.599437424488004" Properties=species:S:1:pos:R:3:momenta:R:3 group=nb0.5_test x=0.5 dopant=Nb pbc="T T T"
Ba       2.03748856       1.92790788       2.27028852       1.22514597       3.56390142      -0.06578508
Ba       6.39485683       6.34548415       6.56921775      -1.93956999      -2.27540924       1.48566355
Ba       6.33718251       6.28064548       2.16680988       0.58849237       0.81998943      -3.22668293
Ba       2.03164711       2.22429701       6.68338359       2.48052802      -2.76827826       4.34374241
Ba       6.36703948       1.92669394       6.50959029       0.29440025       2.36304706      -1.21956455
Ba       1.99132255       6.49148306       2.09650778       4.01862803       3.30217742       2.79764007
Ba       2.07942659       6.29987523       6.56522110      -0.61267153       1.53020173      -2.92327932
Ba       6.32805915       1.96250016       2.21747028       1.29523498       1.78288750       2.12528181
V       -0.08719864       4.28525131       0.31336871       1.28689587      -0.76258848       4.11923921
V        4.17635500       0.04197487       0.02143822      -1.34516886       0.48513047      -0.00724044
Nb       4.20048176       4.10124846       4.39737128      -3.73500873      -1.15303539      -1.57456875
Nb      -0.18221154      -0.16933971       4.30011727       0.78073678       0.35851102      -1.70467198
Bi      -0.07061808      -0.12735343       0.03195879      -2.69503388      -1.73732549       1.98306752
Bi       4.26232419       4.35559517       0.10568763      -3.50736703      -1.29445030       0.85406300
Bi       4.15750964      -0.12904258       4.48576192       2.60481839      -8.92362851       2.84844638
Bi       0.03073732       4.11657508       4.48358202      -2.50823727      -3.89921119      -5.21921066
O        2.23280686       3.91949445       4.34290695       0.52396650       0.00780624      -0.12447844
O        6.15035217       3.97594130       4.65278991      -0.88150671      -0.11426008      -0.38750919
O        4.23663274       2.16069369       4.77632602       0.31070890       0.43362175       0.42750958
O        4.11768692       6.05707953       3.89999724       0.00339960      -0.81701800       0.47823923
O        4.47255998       3.66890312       2.39713352       0.67587734       0.64209826       1.11377980
O        3.88740311       4.32291532       6.48157526      -1.34774583       0.46250112       0.39434818
O        6.46654651       0.10736159       4.46138246      -0.46153462       0.15938004      -0.52124466
O        1.88478797      -0.24160524       4.17819179      -0.77714943       0.39782670       0.52212792
O       -0.30417471       6.41587528       4.39808359      -0.03398921       0.30201832       0.28898007
O        0.09242379       1.84813622       4.26185783      -0.62215943       0.81577221      -0.01133759
O       -0.56884469      -0.32221669       2.23736421       1.00299850       0.86667348      -0.96249176
O       -0.12758572      -0.08483758       6.31008257       0.39865204       0.45130183       0.43326753
O        6.43396323       4.41151155      -0.03761467       0.91705271      -1.51902779      -0.69539742
O        1.77808514       4.21635622       0.03874053      -0.59113300      -1.50632767       0.39416096
O       -0.33472281       2.50793740       0.31508377       0.82480552       0.36996524       0.61628603
O       -0.00960579       6.22722617      -0.11044426      -0.37870005       1.20845338      -0.64961464
O        0.02963038       4.16070984       6.67608239      -0.82676458      -0.28480006      -0.69224325
O       -0.07294895       4.52872965       2.02790879      -0.70864051       0.66504631      -1.09449181
O        2.09192787      -0.11953629       0.17518466      -1.23856058      -0.88909717       0.80782390
O        6.11240540      -0.35011667      -0.31408126      -1.76563999       1.02099274       0.47485886
O        4.29142642       6.54873230       0.43754855       1.05167198       0.47218703      -0.51233738
O        4.16758483       1.79458702      -0.08118742      -0.41247474      -1.14767271      -0.04379165
O        3.93438624      -0.63597909       6.63977894       0.59691953       0.60059275       0.96060206
O        4.20692316       0.14500018       1.96521423      -0.06029398      -0.47025739      -0.63396308
40
Lattice="8.609289656821662 6.559586646510601e-18 9.149070565042882e-18 1.2900057905275507e-16 8.609289656824972 4.841096541068418e-13 -3.2750650659967843e-16 3.594578518291876e-13 8.599437424488004" Properties=species:S:1:pos:R:3:momenta:R:3 group=nb0.5_test x=0.5 dopant=Nb pbc="T T T"
Ba       2.08281544       2.02309621       2.24602579       1.63251500       2.02738791      -1.74378207
Ba       6.33401312       6.28313844       6.58808201      -2.00525630      -1.95436348       0.83972884
Ba       6.35219065       6.34112897       2.11191295       0.18134639       3.29529498      -0.32275646
Ba       2.08240298       2.14000654       6.77457710       0.56692629      -4.20888851       1.79308274
Ba       6.37895194       1.99972813       6.45977823       0.60583845       2.39677773      -1.58381049
Ba       2.10339219       6.55488370       2.20149869       2.54282188       1.17487747       3.59261712
Ba       2.05102685       6.37250401       6.49402558      -2.81126817       2.96091743      -2.46592724
Ba       6.39015208       2.02852680       2.25955011       1.96894583       2.42655084       1.55395863
V       -0.07871392       4.17475200       0.33473281      -1.81859450      -1.28630218      -0.61069597
V        4.16011884      -0.06866368       0.09096134      -0.42858340       0.09682901       0.88224182
Nb       4.15166819       4.07553855       4.37038348      -0.26408051      -0.77196214       1.28965208
Nb      -0.12009892      -0.14895285       4.31647639       2.31261263       0.81644528       1.82017358
Bi      -0.16195297      -0.18117280       0.04991798      -4.97405058      -2.52529100       0.56126607
Bi       4.21020387       4.28644088       0.12088230      -1.68733297      -7.25749753       0.23836874
Bi       4.22273203      -0.28475598       4.53610016       3.23090718      -6.54450229       2.20297560
Bi      -0.06331531       4.07176876       4.41264104      -6.95261327      -1.32148522      -4.60244177
O        2.14089160       4.02969416       4.24290306       0.30919101       0.50149070      -0.40202238
O        6.07206295       4.09466346       4.67130800      -0.98563793       0.67333287       0.16183409
O        4.01185355       1.93640754       4.83289154      -1.25216145       0.97483296      -0.35146588
O        4.17860198       6.03633708       4.20773239       0.39359407      -0.38358816       1.23636371
O        4.31212416       3.82681921       2.43374977      -1.19215339       0.31268982      -0.82206949
O        3.91020875       4.58116444       6.46968017       1.17764793       0.73957087      -0.13551411
O        6.35064963      -0.00285773       4.27056217       0.27890263      -0.82984705      -1.01216383
O        1.89222966      -0.14914081       4.18690680       1.52129100       0.47294628      -0.48404473
O       -0.21440000       6.56830760       4.41256565       0.21736705      -0.40661912       0.42041810
O       -0.22237092       1.96113930       4.01588297      -1.70640481       0.58696557      -1.37351406
O       -0.12747636      -0.12608801       2.32124622       1.93769091       0.20623271      -0.46434702
O       -0.08687388       0.04851958       6.28165388      -0.07283420       1.25404671       0.79211410
O        6.52150307       4.20056716      -0.03156431      -0.16821034      -0.19445702       0.95954565
O        1.82290198       4.14565456       0.38068912       1.41739917       1.52837508       1.08953779
O       -0.10918712       2.32929134       0.52803037       0.53801413      -0.53440097       0.86580041
O       -0.15380521       6.25954771      -0.16849128      -0.85180882      -1.95384485      -0.31002379
O       -0.07736257       3.99769392       6.56896086       0.47876345      -0.78339574       1.57340919
O       -0.27203837       4.78714550       2.06354277      -0.51553779       0.28430942      -1.04940703
O        2.05758829      -0.27416651       0.21373606       0.42912451       0.10027220      -0.79416889
O        5.92481817       0.13755353       0.03318533       1.83166668       1.41408360       1.91169426
O        4.20387040       6.33964942       0.34785483      -0.55498969       0.74511879      -0.44189796
O        3.93798979       1.84050452      -0.35023517      -0.73005258       0.05447459      -0.25208579
O        4.07276767      -0.37679974       6.68914984       0.41920353       0.31851636      -0.18869516
O        4.11808123       0.06537797       1.86339232      -0.16779192      -0.39646000       0.43235248
40
Lattice="8.65531727295351 -1.2578051980892049e-18 3.8447552640545044e-19 -7.757093252115735e-18 8.655317272953246 -3.7656720800135147e-13 2.528060786281201e-17 -2.822067011045455e-13 8.655317272953264" Properties=species:S:1:pos:R:3 group=nb0.75_min x=0.75 dopant=Nb pbc="T T T"
Ba       2.20587386       2.12178477       2.12178477
Ba       6.44944341       6.53353250       6.53353250
Ba       6.44944341       6.53353250       2.12178477
Ba       2.20587386       2.12178477       6.53353250
Ba       6.44944341       2.12178477       6.53353250
Ba       2.20587386       6.53353250       2.12178477
Ba       2.20587386       6.53353250       6.53353250
Ba       6.44944341       2.12178477       2.12178477
V        4.32765864      -0.00000000       0.00000000
Nb       4.32765864       4.32765864       4.32765864
Nb       0.00000000      -0.00000000       4.32765864
Nb       0.00000000       4.32765864      -0.00000000
Bi       0.00000000      -0.00000000      -0.00000000
Bi       4.32765864       4.32765864      -0.00000000
Bi       4.32765864      -0.00000000       4.32765864
Bi       0.00000000       4.32765864       4.32765864
O        2.32140604       4.32765864       4.32765864
O        6.33391124       4.32765864       4.32765864
O        4.32765864       2.31479213       4.32765864
O        4.32765864       6.34052514       4.32765864
O        4.32765864       4.32765864       2.31479213
O        4.32765864       4.32765864       6.34052514
O        6.64245077      -0.00000000       4.32765864
O        2.01286650      -0.00000000       4.32765864
O        0.00000000       6.64906467       4.32765864
O        0.00000000       2.00625260       4.32765864
O        0.00000000      -0.00000000       2.31479213
O        0.00000000      -0.00000000       6.34052514
O        6.64245077       4.32765864      -0.00000000
O        2.01286650       4.32765864      -0.00000000
O        0.00000000       2.31479213      -0.00000000
O        0.00000000       6.34052514      -0.00000000
O        0.00000000       4.32765864       6.64906467
O        0.00000000       4.32765864       2.00625260
O        2.36159410      -0.00000000      -0.00000000
O        6.29372317      -0.00000000      -0.00000000
O        4.32765864       6.68925274      -0.00000000
O        4.32765864       1.96606453      -0.00000000
O        4.32765864      -0.00000000       6.68925274
O        4.32765864      -0.00000000       1.96606453
40
Lattice="8.65531727295351 -1.2578051980892049e-18 3.8447552640545044e-19 -7.757093252115735e-18 8.655317272953246 -3.7656720800135147e-13 2.528060786281201e-17 -2.822067011045455e-13 8.655317272953264" Properties=species:S:1:pos:R:3:momenta:R:3 group=nb0.75_md x=0.75 dopant=Nb pbc="T T T"
Ba       2.35928565       1.97617274       2.14770901      -0.38788184      -1.45368727      -2.95871875
Ba       6.25109422       6.49314497       6.37831802      -0.14019364      -0.18535518       0.89802206
Ba       6.33207741       6.42252827       2.07629688      -0.81702600      -0.71681926      -3.73045168
Ba       2.20716506       2.20252408       6.54020810       1.62508191       1.43135316      -1.22168840
Ba       6.43755531       2.01965358       6.44562165      -0.35051547      -0.07499620       1.30039085
Ba       2.26767331       6.28428713       2.10874824      -2.05990968      -0.82931017      -0.15629822
Ba       2.06799871       6.76247810       6.51271263       1.51100946      -0.52052603       0.99321215
Ba       6.44916542       2.05829002       2.13158757      -2.31049907       0.84472737       0.35878615
V        4.28664511       0.05813912      -0.05962210       0.09467398      -1.92838902       0.61756393
Nb       4.34735882       4.24724366       4.27900301      -0.57571703      -0.06205509       0.96415668
Nb       0.03094061       0.08289988       4.25983239       0.50790996       1.54978975       3.05775095
Nb      -0.01111504       4.42711301      -0.13353862       0.95832907      -1.22233989      -2.23931632
Bi      -0.05809506      -0.05002309      -0.04648061       1.25842175      -0.91719773       0.05638191
Bi       4.34701677       4.34549248      -0.05289081      -1.41879524      -2.71182091      -2.36669941
Bi       4.25802452      -0.00952711       4.28943267       1.78567404       2.28769608      -1.02423875
Bi      -0.08030666       4.29636243       4.19884976      -0.49011091       2.37956735      -3.05578540
O        2.39165620       4.03035465       4.10956415      -0.27790071       0.19088328       0.36671943
O        6.33086066       4.47634573       4.23235951       0.55769743       0.83472832      -0.02894088
O        4.47013545       2.19940012       3.87001865       0.11199301      -0.03121802       0.92794058
O        4.14461364       6.21319316       4.67446578       0.40957645      -1.11891709       0.32376081
O        4.30209416       4.63043680       2.25323392      -0.54548303      -0.31124184      -1.34241276
O        4.41377381       3.78177518       6.20221781       0.03811239       0.45721359       0.34211677
O        6.58423049      -0.18538592       4.05938189       0.02125989      -0.52968279      -0.02633911
O        1.96427395       0.35871053       4.39007287       0.06556837       0.91844421       0.25820205
O        0.43183789       6.81924166       3.98250866      -0.56500038       0.42292345      -0.21141001
O       -0.18994779       2.13831882       4.68507385       0.92653395      -0.01729042       0.10477620
O       -0.03459755       0.47441482       2.33201182      -0.84285380      -0.72620797       0.18167157
O       -0.29145191      -0.25653392       6.34000839      -0.06836265      -0.02008406       0.43541811
O        6.53232323       4.56233105      -0.09696196      -0.17386760       0.91342255       0.28590731
O        1.93111645       4.27077617      -0.18740872       0.48837673      -0.36519070       1.20012306
O       -0.15029045       2.40444066      -0.40979841       0.31765046      -0.46462689       0.11355866
O        0.12425786       6.40665912       0.19585878      -0.28728460      -0.93530655       0.72625246
O       -0.10924083       4.86986249       6.60714028      -0.50244910       0.09644339       0.71337381
O       -0.08667412       4.18158242       1.91392519      -0.30271431      -0.94604207      -0.30787183
O        2.31454446       0.05789246      -0.17338095       0.45021011       1.05814767       0.56159341
O        6.22158061      -0.28349134       0.14299672      -0.19305512      -0.69023325       0.95881600
O        4.13711700       6.55468974      -0.33650089      -0.34237940       0.75836111      -0.48196265
O        4.42045384       1.81462996       0.41861300      -0.39182274      -0.23607948      -0.50423577
O        4.26460818       0.20747860       6.76096671      -0.03124313       0.61043897       0.88163186
O        4.01768322      -0.13890819       2.12591136       0.05799089       1.15532163       0.11112463
40
Lattice="8.65531727295351 -1.2578051980892049e-18 3.8447552640545044e-19 -7.757093252115735e-18 8.655317272953246 -3.7656720800135147e-13 2.528060786281201e-17 -2.822067011045455e-13 8.655317272953264" Properties=species:S:1:pos:R:3:momenta:R:3 group=nb0.75_md x=0.75 dopant=Nb pbc="T T T"
Ba       2.29427832       1.96503438       2.06588852      -3.54228045       1.02703598      -2.91265016
Ba       6.28583682       6.50266654       6.43049315       2.00978582       0.35705721       2.14865370
Ba       6.34840412       6.41150289       1.97672339       1.82543958      -0.05020698      -2.66434015
Ba       2.21819156       2.22140645       6.50494814      -0.38673967       0.91531773      -0.72071085
Ba       6.43057510       2.03837613       6.48969290      -0.17850921       0.39221510       1.18491207
Ba       2.20238368       6.30322720       2.10222918      -2.13379805       0.91839916      -0.12840370
Ba       2.09876134       6.74930554       6.55926396       0.67065721      -0.72191482       1.44171970
Ba       6.42716034       2.10196182       2.13206097       0.27374999       1.57188580       0.02104191
V        4.29470277      -0.05411521      -0.01732383       0.05446892       0.00460872      -0.16632412
Nb       4.26604160       4.24591347       4.33361446      -2.34214691       0.95046989       0.04706205
Nb       0.02277146       0.07875340       4.31309207      -1.22109953      -0.83874986       0.01596171
Nb       0.00804475       4.30250538      -0.20473080      -1.24666248      -3.73491997      -0.05146627
Bi      -0.02935098      -0.06420932      -0.03796922       1.91714181      -0.45079458       1.76092702
Bi       4.33912745       4.30556109      -0.09487893       0.17723436      -1.56213952      -1.91936104
Bi       4.30470637       0.03568547       4.24753593       2.68352537       1.68432818      -1.80842124
Bi      -0.07568133       4.32163954       4.13238825      -0.25925881      -0.74324300      -4.00405005
O        2.33552783       4.05895728       4.20734754      -0.05516688      -0.19266087       0.00524194
O        6.31351725       4.57530702       4.17894012      -1.00873366       0.15635597      -0.15496403
O        4.63586054       2.19082031       4.14550177       0.91980482      -0.31951208       0.08997905
O        4.02005139       6.22463715       4.64270042      -0.81194955       1.23691730      -0.51531486
O        4.32558512       4.45094947       2.17820502       0.55478165      -1.08395422       1.11358609
O        4.40093780       3.93582236       6.21108471       0.16173697       0.68479013       0.56478900
O        6.53542959      -0.16292013       4.22333076      -0.01679777       0.53677755       1.21682539
O        1.98823725       0.46245634       4.60983640      -0.38509358      -0.21680408       0.74891418
O        0.31051724       6.83651886       4.05372468       0.34394085      -0.45123944       0.59604746
O       -0.17870242       2.14623790       4.73099105      -0.74273422       0.21224015      -0.00556700
O       -0.05118646       0.42865596       2.35355302       0.67088320       0.35435764      -0.09424594
O       -0.24952326      -0.23272189       6.32707087       0.19494273       0.06211418       0.22455798
O        6.63001146       4.57084363      -0.04019767       0.64102829      -0.57338775      -0.05859545
O        1.93506212       4.19952320       0.04952359      -0.23161947       0.03233444       0.40422858
O       -0.17992763       2.39313023      -0.39781554      -0.18721568       0.40888537      -0.19809477
O        0.12551184       6.39565656       0.43082981       0.02143737       0.74378498       0.53396006
O       -0.10594977       4.77061679       6.61084288       1.14729770      -0.51064190       0.36785653
O       -0.20183325       3.87180067       2.03443261      -0.14820181      -1.09349811       0.57681028
O        2.13112806       0.17354508       0.03514899      -1.52796691      -0.26406695       0.12495026
O        6.03348204      -0.23955513       0.21253431      -0.33417917       0.66712329       0.08843891
O        4.06909824       6.63211686      -0.33029207       0.07126507       0.12995108       0.54341345
O        4.44532975       1.89772367       0.18928072       0.25722287       1.18466062      -0.14655916
O        4.42042479       0.32907271       6.82423675       0.15924128      -0.83960977      -0.72981791
O        4.02331376      -0.33091461       2.11609284       0.25833005      -1.60590225      -0.23765277
40
Lattice="8.65531727295351 -1.2578051980892049e-18 3.8447552640545044e-19 -7.757093252115735e-18 8.655317272953246 -3.7656720800135147e-13 2.528060786281201e-17 -2.822067011045455e-13 8.655317272953264" Properties=species:S:1:pos:R:3:momenta:R:3 group=nb0.75_md x=0.75 dopant=Nb pbc="T T T"
Ba       2.18045989       2.01563980       2.00243705      -4.37397237       2.43673468      -1.44469812
Ba       6.36442529       6.50036244       6.47696890       3.34167523      -0.88717599       1.07819692
Ba       6.42398863       6.42028884       1.93900632       2.93632801      -0.11014949      -0.67745773
Ba       2.16815590       2.23926848       6.46357922      -2.75550026       0.56451200      -2.11173248
Ba       6.42491156       2.05161802       6.49611656      -0.51850981       0.78385123       0.40536489
Ba       2.13707627       6.33464597       2.09821033      -1.96922492       1.43394258      -0.87742525
Ba       2.09478151       6.70972864       6.55443779      -0.66275141      -2.19620270      -1.39312885
Ba       6.45875087       2.15716846       2.14183893       1.54082241       1.71224440       0.56702127
V        4.32768505      -0.06294741      -0.10162022       0.07200290      -1.72556389      -1.42834288
Nb       4.21370057       4.34200019       4.27530275      -0.92221391       2.43730843      -2.00944109
Nb      -0.02561072       0.03489351       4.30419785      -0.60015018      -0.96750871      -0.02349961
Nb      -0.06713075       4.20787902      -0.14276267      -0.65262873      -0.13791881       2.65760686
Bi      -0.00969442      -0.06650845       0.00143896       1.19744936       0.27970464       1.11388700
Bi       4.34173593       4.27126653      -0.10224821      -0.98054369      -1.93894179       0.64389199
Bi       4.37826113       0.03977493       4.22182070       3.83469916      -0.62471985      -0.38789317
Bi      -0.10003917       4.29374343       4.09395881      -2.30068860      -1.29870893      -0.29314707
O        2.25135606       3.84293562       4.24154000      -0.14927787      -1.01849016       0.42329117
O        6.29233328       4.70190481       4.33201849       0.69551514       0.79193720       1.15416307
O        4.64049843       2.28232267       4.16121963      -0.43147265      -0.42476490       0.53655429
O        3.92107888       6.21321571       4.54237430      -0.15495972      -0.17127192      -0.37074573
O        4.37114345       4.29001893       2.39512869      -0.15715395       0.49691416       0.10214522
O        4.35101610       4.07043865       6.41458167      -0.34872809       0.24339312       0.14351258
O        6.59799097      -0.17408231       4.45626038      -0.55362140      -0.21471098       0.44773819
O        1.89676213       0.37473744       4.64040559       0.73102829      -0.19888865      -0.02908836
O        0.30860648       6.81195656       4.08431986      -0.50225597       0.07529201      -0.52401262
O       -0.38469481       2.18053120       4.64341837      -0.85843229      -0.16957298      -0.39005284
O        0.09613169       0.44139328       2.45658806       0.01513974      -0.45099480       0.42006308
O       -0.22073487      -0.26537572       6.52027300      -0.10495361      -0.40663910       0.93562110
O        6.60615075       4.49779540      -0.07478624      -0.07561242      -0.23229247      -0.39623774
O        1.93351390       4.21195514       0.12294440      -0.25555513      -0.27628790       0.35561962
O       -0.19081759       2.30690534      -0.47812712       0.19190986      -0.08951269      -0.11240366
O        0.02661353       6.35697763       0.42197656      -0.64402962      -0.85319387      -0.44703451
O        0.20059732       4.71724146       6.66679887       0.63932336       0.00237036       0.30925066
O       -0.09166403       3.83104924       1.92442231       0.58394680       0.43594871      -0.77263775
O        2.26729500       0.13230157      -0.15840235       1.36608863       0.07348597      -1.14249258
O        6.14295196      -0.07687189       0.22023704       0.87826273       1.19728306      -0.22637835
O        4.10227906       6.74375830      -0.14258410       0.86394557       0.72478102       0.85824064
O        4.35670162       2.09633524       0.24975116      -0.38313758      -0.88703430      -0.10121395
O        4.22020092       0.03780117       6.75229055      -0.45765614      -0.65309968      -0.26621442
O        4.05013843      -0.38884784       2.05507560       0.31062423       1.29951369       0.78024374
40
Lattice="8.65531727295351 -1.2578051980892049e-18 3.8447552640545044e-19 -7.757093252115735e-18 8.655317272953246 -3.7656720800135147e-13 2.528060786281201e-17 -2.822067011045455e-13 8.655317272953264" Properties=species:S:1:pos:R:3:momenta:R:3 group=nb0.75_md x=0.75 dopant=Nb pbc="T T T"
Ba       2.33678140       1.90511987       2.10446282       0.74689960       2.72171628       1.22537328
Ba       6.60981593       6.42579973       6.42731870       1.06218131      -4.10340326       2.05325473
Ba       6.54923790       6.85102465       1.90301607       2.04028918       1.94030490      -2.64191334
Ba       2.02478074       2.45277960       6.45699842      -1.14410751       1.71315975       0.79189691
Ba       6.27339634       1.96195580       6.39386619       5.33771893      -3.72641035      -6.12734721
Ba       2.11326556       6.26292197       2.01987249       3.01666948      -4.15701075      -1.52676593
Ba       2.29955740       6.56875801       6.23001305      -0.83720500      -3.21570445      -2.31389793
Ba       6.28859826       1.92517711       2.01257210       0.04443891      -0.10061544       3.16537927
V        4.27078775      -0.14939431      -0.14847463      -0.31651802      -1.15310572      -1.97673337
Nb       4.30319123       4.21558302       4.29654093      -2.75844922       0.65357199       0.82690036
Nb      -0.11269626      -0.09890506       4.18532514      -3.39908656       0.32478868      -1.52362022
Nb      -0.00440215       4.20224436       0.03285489      -2.04624261       5.29606434      -0.97265264
Bi       0.00346388       0.03703269      -0.08651953       3.06132062       1.12193869       1.56132401
Bi       4.47172463       4.23509781      -0.17403926      -2.90213204      -2.26647020       2.43276790
Bi       4.34915677      -0.08547540       4.26865671      -2.33038867      -0.96223626       6.40312490
Bi       0.01606919       4.16077766       4.14767772       4.07749768       0.36783825       3.18976384
O        2.15833015       4.72351161       4.50922659      -0.17839553      -2.06077323      -1.58336948
O        6.17766596       3.69381962       4.29191354      -0.24554735      -1.15955285      -1.09073155
O        3.85862039       2.34362438       4.56266074       0.71396758       1.65218490       1.52790504
O        4.72188327       6.25929573       3.90407472       0.21287291      -0.75033169      -0.19352674
O        4.14473615       3.89204763       2.23459131      -0.28850227      -0.31901000      -1.72331681
O        4.32634359       4.63841551       6.28068978       0.07268724       0.20287654       0.66622171
O        6.65741548       0.12051196       4.25338227       1.82021989       1.56497498       0.80277329
O        2.18409792      -0.36372954       4.00773267       0.51371387       0.36532066      -2.56559979
O       -0.33529822       6.55921690       4.14999453      -1.45559270      -0.66518294      -1.97372588
O        0.25305912       1.81049581       4.33543640      -0.67189600       1.54185321      -0.75865531
O        0.04127215      -0.10815585       2.13717325       0.21714152      -0.84815189      -0.90454329
O        0.07608200      -0.29162458       6.12459345      -0.72244182       0.74790443      -1.53347620
O        6.56245786       3.77437659      -0.11654847      -1.10064126      -0.88813149       1.48365853
O        1.77640562       4.63966908      -0.19472805       0.26715490       0.10019971       0.94209381
O        0.33203184       2.10014706      -0.18262426      -0.24302146      -0.12459982       1.16750679
O       -0.32817191       6.13888410       0.13552573      -0.90802668      -0.45818528      -2.11857620
O        0.13228349       4.10247777       6.37614215       0.23708687       0.35637858       1.20596843
O        0.13653073       3.77830243       1.89889223      -1.76542276      -0.87097240       0.01697011
O        2.64307099      -0.60344847      -0.29254108       1.13016434       1.09452837      -1.30824701
O        6.56301573       0.17703021      -0.04886063       1.51406552      -0.44377227       0.72713449
O        4.89835755       6.20564061      -0.00609413      -0.73460986       0.80684881      -2.05922384
O        4.19634958       1.65976969      -0.25511432      -0.14021942       1.09869698      -2.02515947
O        4.69840370      -0.34381217       6.73708232      -0.29449233      -0.51056661      -1.31778041
O        4.35185303      -0.09084399       1.75771874      -1.14128937       0.67132001       1.42781812
40
Lattice="8.65531727295351 -1.2578051980892049e-18 3.8447552640545044e-19 -7.757093252115735e-18 8.655317272953246 -3.7656720800135147e-13 2.528060786281201e-17 -2.822067011045455e-13 8.655317272953264" Properties=species:S:1:pos:R:3:momenta:R:3 group=nb0.75_md x=0.75 dopant=Nb pbc="T T T"
Ba       2.33089878       1.97131506       2.14471179      -0.26347071       0.99477533       0.81119003
Ba       6.66848764       6.27448918       6.47430809       2.44679560      -5.18444192       0.32559187
Ba       6.52532032       6.83146989       1.85130983      -4.68042361      -2.21800566      -2.12830588
Ba       2.04326244       2.43214650       6.51238998      -0.03572236      -2.73841877       1.16239816
Ba       6.44818453       1.87140545       6.25374406       5.35280413      -2.52402655      -3.32428322
Ba       2.22174117       6.20146806       1.96931232       5.50545212       0.63434204      -1.56818092
Ba       2.26132335       6.46558485       6.19763227      -2.17266866      -2.54132316      -0.82173256
Ba       6.29726484       1.95793028       2.05478289       1.34517253       1.99864403       0.43656108
V        4.34264977      -0.12313191      -0.27910408      -0.27511016       1.15580236      -0.41545702
Nb       4.28198088       4.27240911       4.26564164       1.66421485      -0.24355018      -3.44099245
Nb      -0.07213207      -0.07923058       4.10332457       3.27603715      -0.10766939      -2.38123281
Nb      -0.08120629       4.29924411      -0.01570269      -0.91601620      -1.47644278       0.09897912
Bi       0.10432492       0.03931499      -0.08644561       6.10800464       1.34456125      -0.15972804
Bi       4.40393093       4.21613183      -0.11228078      -2.78604018       0.15213602       5.74479040
Bi       4.27661142      -0.13631399       4.34171252      -5.32597192      -1.77033371      -0.13897499
Bi       0.06171721       4.20868105       4.22744360       1.06223371       1.20244038       2.91204319
O        2.22160509       4.25577129       3.85562193      -0.69468094      -0.82720932      -1.32911987
O        6.08773977       3.73733096       4.09532047       0.26892884       1.73907562       0.31107418
O        3.92315687       2.09668038       4.85570414       0.11349825      -1.36121867      -0.01099345
O        4.48393369       6.20745210       3.96944678      -2.04183490      -0.57849851       0.66826082
O        4.04329577       3.91445479       2.13624608      -0.04032166       0.42714278      -0.67107916
O        4.16558328       4.66832070       6.16941416      -1.25861494       0.18716612       0.42925793
O        6.60125129       0.45296883       4.09387532       0.32154415      -0.90922290      -1.80153663
O        1.94492461      -0.36569289       3.81745719      -2.42222280      -0.26231575       1.75887129
O       -0.48324667       6.67692573       3.78011566       0.61339667       1.39084556       0.69269468
O        0.21674297       1.98557603       4.06721432       0.28278593      -0.60145781      -0.49971160
O        0.02253729      -0.15333458       2.06913138      -0.37238974       0.95875069       0.35320141
O        0.08489992      -0.29100990       5.98386175       0.94047750      -0.74689089      -0.25631491
O        6.59964475       3.73530408      -0.04248356       0.11987481       0.94174843      -0.96804224
O        1.96248776       4.51925150      -0.05613514      -0.83041765      -0.63776011      -0.09077628
O        0.35933153       2.15854609      -0.01667613       0.70148686       0.81484667      -0.12210513
O       -0.59839610       6.19036591      -0.18729648      -0.42826245       0.38914667       0.71479113
O       -0.25650737       4.26751655       6.71921697      -1.80499327       0.12458874      -0.94064011
O       -0.25198001       4.06883243       1.96810931      -0.71759026       3.82163334       0.91918128
O        2.47291543      -0.43273676      -0.32078268      -0.37492966       0.36516550       0.75385932
O        6.43998767       0.11228988      -0.05468187      -1.56955375       0.16344230      -1.18353639
O        4.65689567       6.79822258      -0.12500207      -1.08796817       0.64121691       0.70521565
O        4.11048097       1.67756688      -0.59760567      -0.21580802       1.10739597      -1.20403194
O        4.63207050      -0.50041301       6.37037898      -0.01026422      -0.76873611      -0.19593526
O        4.35384399       0.14316608       1.82012232       0.62952600       0.83661394      -1.26590471
40
Lattice="8.65531727295351 -1.2578051980892049e-18 3.8447552640545044e-19 -7.757093252115735e-18 8.655317272953246 -3.7656720800135147e-13 2.528060786281201e-17 -2.822067011045455e-13 8.655317272953264" Properties=species:S:1:pos:R:3:momenta:R:3 group=nb0.75_md x=0.75 dopant=Nb pbc="T T T"
Ba       2.28074916       1.96662503       2.14785531      -2.96319250       0.15150181       0.35692119
Ba       6.67246402       6.15066689       6.45995037      -1.90877788      -4.00352881      -0.70782240
Ba       6.39464595       6.75094583       1.84193203      -4.61498911      -2.73139020       0.93059610
Ba       2.05188083       2.33243397       6.53957563       2.27252341      -3.84587754      -0.19693381
Ba       6.59635522       1.83861117       6.18982033       5.07915307       0.24730480      -1.39046183
Ba       2.37407948       6.29305654       1.92260941       3.82238823       4.62634518      -3.29376235
Ba       2.18797263       6.44151186       6.20040327      -2.70426298       0.49177973       0.57595321
Ba       6.34869390       2.05229029       1.99490722       2.94630754       3.26646012      -3.98307292
V        4.34603149      -0.04307988      -0.18636322       0.25580369       1.08374256       0.41924244
Nb       4.30254929       4.17021197       4.14991253      -0.98123371      -3.93362204      -0.67036724
Nb       0.04069501      -0.13021360       4.06146572       1.47971592      -2.68281018       2.45562360
Nb      -0.13652061       4.24486737       0.04284061      -1.88803023       0.25321281       2.45017953
Bi       0.16026266       0.04891272      -0.11286344       1.85409361      -1.42391022      -3.13382863
Bi       4.38518519       4.19983360      -0.01392348       0.30297478      -1.09398463       3.03910391
Bi       4.20918373      -0.12949048       4.30287690      -0.77123654       1.45495389      -1.64316161
Bi       0.07092970       4.22842957       4.24542837      -1.03371225       2.34463525      -0.63627775
O        2.20891838       4.24404450       3.91021066       0.04194025      -0.11913484       0.49984008
O        6.22190108       4.14405303       4.25143452       0.78727911       0.92097273       0.66236999
O        4.08669955       2.11338734       4.37216590       0.48142808       0.89090230      -3.51843315
O        3.99424800       6.14134168       3.85091179      -0.95783996       0.53386789      -1.23621435
O        4.37883796       3.84877432       2.21092238       1.45621453      -0.61942245       0.40587115
O        3.88204849       4.36493708       6.01785433      -0.47532294      -2.06689256      -1.54018024
O        6.54625292       0.01691491       3.96573007       0.68218364      -1.89905355       0.29156667
O        2.07595875      -0.44775130       4.20650952       0.31469852       0.53161099       0.08774988
O       -0.35808051       6.62537506       4.17388900       0.73773881       0.40951989       1.45371840
O        0.15922490       1.93372764       4.17257067      -0.57136540      -1.40800720       0.87087020
O       -0.07348778       0.26141818       2.09323049      -0.19760574       1.08266281       2.11054278
O        0.06655811      -0.06667293       6.09902961      -1.39795185       2.35341916      -0.25465348
O        6.46955672       3.89811247      -0.25958184       0.82537650       0.28081642      -0.36633821
O        1.74893179       4.55118742      -0.28301917       0.28516039       0.60301756      -1.06238724
O        0.36860312       2.27019665       0.06050274      -1.48549083      -0.93196852       0.96048544
O       -0.28126300       6.32333543      -0.02607757       1.22819570       2.31585960      -1.13387289
O       -0.26987302       4.08062309       6.46270971       1.78443952      -1.12664446       0.51258927
O       -0.24415487       4.74144587       1.84344224       0.18110658      -0.21890458      -1.21268759
O        2.33051928      -0.21354927      -0.20141128      -0.95072238       1.12842706       0.31125111
O        6.13694252       0.25357029      -0.44772017      -0.67960100      -0.15627708      -0.75592387
O        4.38949144       6.40132621       0.21212365      -0.66675866      -1.10498590       1.54128119
O        4.11943014       2.10089505      -0.59731210      -0.20160278       0.29167026       0.68058042
O        4.47188784      -0.71219929       6.35000699      -1.65901185      -0.06977449      -0.53930707
O        4.34040691       0.30718614       1.49811481      -0.31532243       0.37777213       1.00125419
40
Lattice="8.65531727295351 -1.2578051980892049e-18 3.8447552640545044e-19 -7.757093252115735e-18 8.655317272953246 -3.7656720800135147e-13 2.528060786281201e-17 -2.822067011045455e-13 8.655317272953264" Properties=species:S:1:pos:R:3:momenta:R:3 group=nb0.75_test x=0.75 dopant=Nb pbc="T T T"
Ba       2.33903868       2.08552235       1.95357940       0.80131660       0.11404086       3.85595226
Ba       6.54538501       6.37392876       6.65761499      -0.96807239       3.67385569      -0.14846451
Ba       6.63017725       6.52614382       2.14729664       1.85981256      -1.55482434      -2.26317393
Ba       2.10480053       2.12976837       6.54815209       4.37385543      -1.40724378      -1.63290974
Ba       6.60039422       2.01033842       6.33075374      -3.41292653       2.24515898       0.12839386
Ba       2.56477687       6.32487774       1.88168770       3.85090471      -1.17869994      -3.07034819
Ba       2.28183800       6.62535195       6.57365076       0.26094414       0.62573795      -0.90083363
Ba       6.47517472       1.88129537       1.92311725       1.24873505       1.79359889      -0.60835700
V        4.37227248      -0.13284766      -0.05636547      -0.53416261       0.96333790       0.11885852
Nb       4.31788594       4.27300825       4.14126555      -1.21219364      -2.14565135       1.46532791
Nb       0.13768271      -0.13643906       4.27360273       2.26334534       0.31825066      -1.09321389
Nb       0.00275684       4.28268785      -0.09485131       0.51420700       0.38324912      -1.56387095
Bi       0.02146922      -0.07180784      -0.10798623      -1.48495568       1.17839758      -0.51125968
Bi       4.34056914       4.16539804      -0.13708652      -1.80512633       1.88466376      -1.16834571
Bi       4.34205497      -0.14725067       4.20933264       0.38948252      -3.49884038       3.99005668
Bi       0.01495180       4.27181796       4.39754431      -1.64601472      -1.85892744       1.89611714
O        2.42242129       4.43779029       4.73429976       0.26255073       0.61164207       0.19095787
O        6.39803623       3.85836774       3.78669153       0.05124818       0.10783623      -2.38848473
O        3.99855797       2.32748182       4.22719805       0.69771397      -0.74775914      -0.71914580
O        4.55972881       6.21204288       3.74036721      -0.49213339      -0.48525377       0.22796228
O        3.89137035       4.06169850       1.95255894       0.90281818      -0.41973038      -0.94378001
O        4.68046676       4.12449835       5.98165326      -0.20962149      -0.87148727      -0.15244461
O        6.60459184       0.08611160       4.45900449       0.00689989       0.37593287       0.44774904
O        2.01409461      -0.48748305       4.11729696      -0.55505946      -0.18677162      -0.43324268
O       -0.28120941       6.47705273       4.41916301       0.54500207      -0.63442193      -0.22870857
O        0.34136785       1.77979606       4.36635881       0.23584129       0.32359215      -1.70113332
O       -0.25431653      -0.03745113       2.36151556       1.09856574      -0.12437561       0.44517467
O        0.25330279      -0.10605330       6.19671775       1.19888538      -1.85078037      -0.03420336
O        6.70654972       4.25427693       0.21694505       0.68874215      -1.58021409      -0.54476491
O        2.13853754       4.16091532      -0.32736703      -0.11278820       0.12678868       0.34361184
O       -0.06828360       2.19709641      -0.04209762      -1.27461666      -1.00717430       0.24138531
O        0.22110024       6.23024528      -0.12381605      -1.50069824       1.08886801      -1.61162828
O       -0.17257851       4.36496999       6.55348902      -0.91711703       0.28700095      -0.53790239
O        0.42035469       4.17961416       1.77063351       0.51488062       0.06677271       0.52793366
O        2.51715634      -0.22817956       0.12950616      -0.83779444       0.30520123       0.95660606
O        6.38925789      -0.04282108      -0.46186762      -0.39679665       0.15551398       0.47382408
O        4.45328997       6.43342925      -0.04284606      -0.93347763      -2.47374479       0.75974254
O        4.45627264       1.75921722       0.09719764       1.52955033      -1.03944327      -1.15696657
O        4.22690516      -0.00103512       6.59310070      -1.01786682       1.01211825       1.42850192
O        4.89457643      -0.28649902       1.75601855      -0.21361917      -0.19557830       1.20496304
40
Lattice="8.65531727295351 -1.2578051980892049e-18 3.8447552640545044e-19 -7.757093252115735e-18 8.655317272953246 -3.7656720800135147e-13 2.528060786281201e-17 -2.822067011045455e-13 8.655317272953264" Properties=species:S:1:pos:R:3:momenta:R:3 group=nb0.75_test x=0.75 dopant=Nb pbc="T T T"
Ba       2.32794947       2.07063392       2.06573734      -1.09016824      -2.54165459       3.54109793
Ba       6.54065409       6.48905984       6.60043568       0.20359179       4.18589364      -2.69803172
Ba       6.69063662       6.44881957       2.08437253       1.62759038      -3.88145367      -1.94860762
Ba       2.24606411       2.06754767       6.50721554       5.12075599      -2.48372495      -1.53628902
Ba       6.46613006       2.05068027       6.34751154      -3.56276198       0.37240229       0.96899633
Ba       2.59648664       6.33485503       1.83542952      -1.25096651       2.19848940      -0.87282171
Ba       2.27436031       6.60936948       6.54363352      -1.20353584      -2.26773193      -0.82666586
Ba       6.51486617       1.98649344       1.90759109      -0.23756848       4.27834666      -0.22355306
V        4.35699289      -0.00909916      -0.06433689      -1.46820581       0.33615285       0.24511303
Nb       4.33687265       4.12031167       4.19193432       1.66665860      -2.82661490      -0.13619985
Nb       0.16111443      -0.11769985       4.19668617      -0.43979792      -0.90863744      -1.88110395
Nb       0.05724554       4.28011221      -0.01480866       0.62370684      -0.82275607       2.68299523
Bi      -0.01065685      -0.04688517      -0.10370638      -0.18589995       1.08032294       0.57693204
Bi       4.34092290       4.15792581      -0.17036857       2.20438605      -0.97737540       0.22322105
Bi       4.39198732      -0.19561036       4.28902021       4.53215510      -0.92549443       1.53777383
Bi      -0.01686888       4.25641495       4.38445952      -1.31249214       0.84788203      -2.66601639
O        2.28329596       4.52249131       4.49665359      -0.45882709      -1.16151149      -1.03470305
O        6.19729127       4.09582696       3.57387181      -0.26828929       0.72783639       1.42475221
O        4.11531901       1.96607023       3.94958417       0.44761118      -0.46982954       0.26480546
O        4.48340307       6.02719906       4.10197151       0.10725755      -0.86779441       2.16974426
O        4.14084292       3.96911743       2.13226409      -0.23230648      -0.02388308       0.50221261
O        4.89150738       4.13681892       6.08853784       0.15314922      -0.29504682       0.27947070
O        6.76462930       0.11517687       4.51672597       1.58118240       0.05366143      -0.10270673
O        2.02873349      -0.58551262       3.96882505       0.16406366       0.30722256      -0.26274558
O       -0.28655425       6.56226381       4.29297088      -0.75916174       0.70291481      -0.52335735
O        0.48378773       1.78950769       4.19381939       0.73850950      -0.36614258       0.14119868
O       -0.07178723      -0.24195442       2.28227538      -0.51891145      -1.00090147       0.62102518
O        0.46647995      -0.21141837       6.36159826       0.40156907       1.19160982      -1.06320610
O        6.65303387       4.06207685       0.08438549      -1.84277437      -0.60920734       0.17130001
O        1.95878779       4.16736254      -0.59571261      -0.05215501      -0.22503225      -1.36596073
O        0.02570857       2.15239912      -0.31043071       1.29227057       0.67032456      -1.76290999
O       -0.18721870       6.14078130      -0.36682766      -1.02182625      -1.39374786       0.31587044
O       -0.41181250       4.09980929       6.47828490      -0.94256734      -1.79741982      -1.68653269
O        0.46088887       4.30740633       1.82294469       0.11269114       0.93816007       0.12520800
O        2.58432812      -0.11843187       0.33508745       1.13701068       0.57756049       0.28252899
O        6.43821670      -0.26387668      -0.29231931      -0.68921896      -0.88678559       1.17059341
O        4.32474756       6.36292907      -0.17783469       0.04472712       1.84260451      -1.18723401
O        4.53007130       1.82982198      -0.09353559      -0.21627194       2.18647632      -0.32334782
O        3.97420257      -0.12668089       6.74912191      -0.02070432      -1.25351986      -0.34828007
O        4.53308235      -0.19743131       2.04011295      -0.89914610       0.29371516       0.85132533
40
Lattice="8.703291402131459 6.592488543756667e-19 -6.35290326729485e-19 1.922639916000055e-17 8.703291402130938 -4.654571751865251e-13 4.199198718126868e-18 -3.149372647454153e-13 8.703291402130716" Properties=species:S:1:pos:R:3 group=nb1_min x=1.0 dopant=Nb pbc="T T T"
Ba       2.17582285       2.17582285       2.17582285
Ba       6.52746855       6.52746855       6.52746855
Ba       6.52746855       6.52746855       2.17582285
Ba       2.17582285       2.17582285       6.52746855
Ba       6.52746855       2.17582285       6.52746855
Ba       2.17582285       6.52746855       2.17582285
Ba       2.17582285       6.52746855       6.52746855
Ba       6.52746855       2.17582285       2.17582285
Nb       4.35164570       4.35164570       4.35164570
Nb       0.00000000      -0.00000000       4.35164570
Nb       0.00000000       4.35164570      -0.00000000
Nb       4.35164570       0.00000000       0.00000000
Bi       0.00000000       0.00000000       0.00000000
Bi       4.35164570       4.35164570      -0.00000000
Bi       4.35164570      -0.00000000       4.35164570
Bi       0.00000000       4.35164570       4.35164570
O        2.33549153       4.35164570       4.35164570
O        6.36779987       4.35164570       4.35164570
O        4.35164570       2.33549153       4.35164570
O        4.35164570       6.36779987       4.35164570
O        4.35164570       4.35164570       2.33549153
O        4.35164570       4.35164570       6.36779987
O        6.68713723      -0.00000000       4.35164570
O        2.01615417      -0.00000000       4.35164570
O        0.00000000       6.68713723       4.35164570
O       -0.00000000       2.01615417       4.35164570
O       -0.00000000      -0.00000000       2.33549153
O       -0.00000000      -0.00000000       6.36779987
O        6.68713723       4.35164570      -0.00000000
O        2.01615417       4.35164570      -0.00000000
O        0.00000000       2.33549153      -0.00000000
O        0.00000000       6.36779987      -0.00000000
O        0.00000000       4.35164570       6.68713723
O        0.00000000       4.35164570       2.01615417
O        2.33549153       0.00000000       0.00000000
O        6.36779987       0.00000000       0.00000000
O        4.35164570       6.68713723      -0.00000000
O        4.35164570       2.01615417      -0.00000000
O        4.35164570      -0.00000000       6.68713723
O        4.35164570      -0.00000000       2.01615417
40
Lattice="8.703291402131459 6.592488543756667e-19 -6.35290326729485e-19 1.922639916000055e-17 8.703291402130938 -4.654571751865251e-13 4.199198718126868e-18 -3.149372647454153e-13 8.703291402130716" Properties=species:S:1:pos:R:3:momenta:R:3 group=nb1_md x=1.0 dopant=Nb pbc="T T T"
Ba       1.93971453       2.11915092       2.23907125      -0.19388422      -1.06056454      -0.96555244
Ba       6.21357921       6.65136300       6.69532866      -2.35086110       1.40205713       3.40027965
Ba       6.39892777       6.70593052       2.11510880       0.41825357      -0.73049324       1.61740905
Ba       2.06006972       2.14801225       6.62863938      -0.12918072       1.35074841       1.14316031
Ba       6.25252683       2.16118178       6.41358363      -1.70675227       0.25914116       1.15311465
Ba       2.12620165       6.39208625       2.17349944      -1.39790468       1.08838585       0.87286891
Ba       1.88248699       6.54473452       6.59613007      -0.98694672       2.66545927       2.50162128
Ba       6.42443406       2.10677975       2.28997013       0.57059834      -1.17321912      -2.20305414
Nb       4.20262027       4.45203711       4.31281603       1.85905266      -0.58701649      -1.62834204
Nb      -0.13509874       0.00937558       4.40856189      -2.66668331      -0.11424622      -0.30148562
Nb      -0.16938384       4.42462056      -0.06758346      -1.75122134      -0.12817108      -0.24764683
Nb       4.16841246       0.09701130      -0.00632072       0.54674845       1.12184540      -0.93243614
Bi      -0.13519822       0.02897067       0.05539139       1.35178335      -0.61208374       2.19366627
Bi       4.30854095       4.39801797       0.13978606      -0.50536456      -0.98002931       0.14750664
Bi       4.19103133       0.10783683       4.45104114      -0.03315874      -2.40365548      -6.53118619
Bi      -0.26585624       4.30055745       4.30374041      -2.05884376       0.27798622       3.59998991
O        2.25179555       4.71449431       4.43349970      -0.41768024       1.29971408      -0.39982348
O        6.20565990       3.95331640       4.20999742      -1.14371605      -1.03551092      -0.47261493
O        3.87000111       2.45159928       4.15588030       0.30171938      -0.45628568      -1.01822072
O        4.47700089       6.35757251       4.61691879      -0.21771991      -0.16553691       0.20706821
O        4.14994550       4.65600804       2.28914716       0.31353266      -0.12042608       0.27980103
O        4.41439349       4.24354808       6.38029701       0.61630701       0.69002494      -0.91451875
O        6.63291783       0.50318132       4.28034483      -0.40285989      -0.38363674       0.22302967
O        1.92193055      -0.06214482       4.63515188       0.25395582       0.60200135       0.75105970
O       -0.30165331       6.80910406       4.15554307       0.10468886       0.27252531       0.79486579
O        0.15991197       2.12961333       4.52681855      -0.22507315       0.53505355      -0.45725601
O       -0.04218464       0.23988094       2.33346545      -1.00681739       0.70293268       0.68288611
O       -0.30548821      -0.08692286       6.42135577      -0.55367725       0.16690045       0.54620899
O        6.52234257       4.85949680       0.09564590       0.65596391       0.30155276      -0.03182956
O        1.83899734       4.20793734      -0.02215558       0.26022147       0.10315511       0.06936612
O       -0.63818884       2.52445015      -0.20420584       0.59123384      -0.37938504      -0.23638334
O        0.13876268       6.61081090       0.34955869       0.43487655       1.12160120       0.37002147
O       -0.14809563       4.82226969       6.77604061       0.13844512       0.28752991      -0.51093913
O       -0.13788879       4.14187008       2.07536390       0.08424947      -1.38488043       0.75723188
O        2.23532841       0.37619944      -0.16571374      -0.45137772      -0.05663802      -1.01233193
O        6.18652471      -0.30179174       0.10238497       0.50150506       0.21907663       0.16384686
O        3.88518078       6.86020283      -0.07903309       1.36854590      -0.15147761      -0.51997079
O        4.53024922       2.00559662       0.21815724      -0.42877039       0.42764634       0.15943690
O        4.29842514       0.34155269       6.75286565      -0.78958614       0.01653497      -0.41878303
O        4.21702345      -0.09646161       2.16182028      -0.34028889      -0.92831878      -0.59235615
40
Lattice="8.703291402131459 6.592488543756667e-19 -6.35290326729485e-19 1.922639916000055e-17 8.703291402130938 -4.654571751865251e-13 4.199198718126868e-18 -3.149372647454153e-13 8.703291402130716" Properties=species:S:1:pos:R:3:momenta:R:3 group=nb1_md x=1.0 dopant=Nb pbc="T T T"
Ba       1.95369190       2.09986722       2.22678877       0.35144746       0.34772404      -0.62488523
Ba       6.16718363       6.68621917       6.78682423      -1.16769339       0.85712447       2.54393094
Ba       6.41358621       6.67690881       2.18615763       0.40253793      -1.15700030       3.39093944
Ba       2.03483934       2.21582145       6.63551352      -2.11901091       2.89593687      -0.19330221
Ba       6.24017066       2.16398603       6.46854698       0.94310651       0.20079504       1.67360488
Ba       2.07513119       6.44328436       2.17932990      -1.99007478       1.53401284       0.59188916
Ba       1.86387971       6.61906455       6.64191382       0.36984050       2.27892289       1.43644971
Ba       6.44280264       2.08631702       2.19787802       0.39394014       0.13457533      -3.94869672
Nb       4.23749691       4.41324457       4.34663472      -0.74603027      -0.68553641       2.04623237
Nb      -0.19370378       0.03929590       4.43512096      -0.56565483       1.36172960       1.11796248
Nb      -0.22769079       4.39531981      -0.06004783       0.15014429      -0.04248232       1.78850757
Nb       4.21974584       0.09679634       0.03378543       1.63830035      -0.89836301       0.70410778
Bi      -0.11569888       0.01815884       0.07676218       0.86454435      -0.90126839      -0.07500148
Bi       4.30160515       4.37787756       0.10186207      -0.29012435      -0.71604386      -2.67777208
Bi       4.14444334       0.03693741       4.31330457      -2.90242750      -3.17157396      -6.47649116
Bi      -0.28273939       4.31216853       4.35889601       0.37596028       0.83230947       1.96920228
O        2.21105710       4.82892559       4.35176170       1.16230811      -0.63719096       0.06491758
O        6.17477584       3.90029240       4.15561868       0.61047583       0.18492794       0.06362202
O        3.86055044       2.36289857       4.05332161      -0.16940804       0.85611765       0.47083344
O        4.62897966       6.49776487       4.40755744       1.09543778      -0.31471677      -1.40142350
O        4.24522783       4.71889805       2.24419111       0.37456821       0.46756280      -0.36495509
O        4.41310925       4.28936337       6.26286342      -0.62524293      -0.44718743      -0.34559958
O        6.48332648       0.31637806       4.41245877      -0.97858551      -0.26615082       0.51830622
O        1.82294393      -0.09494329       4.68540937      -0.93388804      -0.68260791      -0.56638501
O       -0.37805329       6.85871814       4.21473579      -0.83321411       0.23561034      -0.44103180
O        0.19797347       2.21911937       4.66395603       0.04600549      -0.24850463       1.62086186
O       -0.16881864       0.41714904       2.48135519      -0.09422394       0.20466734      -0.23556026
O       -0.36123507      -0.03652500       6.52841202       0.07480392       0.30262375       0.45385010
O        6.53383211       4.96004448       0.21663573      -0.51520959      -0.52211031       0.68546146
O        1.79544249       4.28293490       0.06264830      -0.01723657       0.47172084       0.14400907
O       -0.46226654       2.52223028      -0.34801103       0.06759113      -1.17735085      -1.01966471
O        0.17314809       6.55489144       0.37042077      -0.41731420      -0.11048190       0.10148893
O       -0.31479855       4.88281122       6.79579833      -1.19610774       0.04331723       0.18261757
O       -0.15355183       4.01510635       2.10770718      -0.65924496       0.39985373      -0.66740795
O        2.19412397       0.32802713      -0.10499306      -0.07887726      -0.44654991       0.64304680
O        6.23617582      -0.07747714       0.14010600      -0.20045921       1.42289006       0.18508892
O        4.12875080       6.77245619      -0.29133386       0.18619015       0.78653953      -1.24728775
O        4.38799777       2.14017372       0.30159842      -0.26401125      -0.83255786      -0.01767309
O        4.30095150       0.33597106       6.68474115       0.42434437      -0.05411554      -0.10077910
O        3.96110298      -0.24065349       1.82610611      -1.44481131      -0.60257485       0.07743213
40
Lattice="8.703291402131459 6.592488543756667e-19 -6.35290326729485e-19 1.922639916000055e-17 8.703291402130938 -4.654571751865251e-13 4.199198718126868e-18 -3.149372647454153e-13 8.703291402130716" Properties=species:S:1:pos:R:3:momenta:R:3 group=nb1_md x=1.0 dopant=Nb pbc="T T T"
Ba       1.95728735       2.13546260       2.19107555      -0.11407839       2.43951747      -1.23319502
Ba       6.17865524       6.71167739       6.80174395       1.61243483       0.47958586      -1.15448533
Ba       6.41935134       6.63496921       2.28465406       0.28900083      -2.43963903       3.24935745
Ba       1.97408350       2.28683028       6.62814765      -1.69466787       2.09348600      -0.07877422
Ba       6.28395254       2.15589208       6.51959611       1.54216210       0.09510575       1.96902272
Ba       2.00925267       6.47373970       2.20057541      -2.75233659       0.47301149       1.62189934
Ba       1.86493836       6.66726075       6.66774706      -0.29967902       0.64939455       0.26674055
Ba       6.43226915       2.11189374       2.07568291      -0.28513791       1.95853564      -3.33747552
Nb       4.21226031       4.40304562       4.40230167       0.25816911      -0.34044127       0.98232889
Nb      -0.25305373       0.08804030       4.50983141      -1.76477779       0.89127973       0.86649354
Nb      -0.20649855       4.37824996       0.04149466      -0.03438179       0.18578607       1.29959033
Nb       4.22585628       0.07407695       0.00238004      -1.94564562       0.58935426      -1.62362496
Bi      -0.09794863       0.01739398       0.07088275       0.73756344      -0.54007295      -0.09536636
Bi       4.29820660       4.36946538       0.07943566      -0.14509340      -0.15630194      -0.34147039
Bi       4.11433461      -0.01995612       4.22164026      -0.13431851      -2.99373798      -3.33920879
Bi      -0.27585842       4.32723875       4.38401791       1.17807487       1.14927572       1.94663861
O        2.30181084       4.75756993       4.42515883      -0.59166405       0.58206457       0.44389671
O        6.40834400       3.98244585       4.26880178      -0.83035745      -0.00960841       0.60657270
O        3.87725838       2.44378562       4.02592880       0.81751813      -0.99457651      -0.92535371
O        4.74523152       6.33035899       4.37026047      -0.43220105      -0.12139608       1.42269126
O        4.22106235       4.76184489       2.16301333      -0.71163136      -0.20383088       0.55499869
O        4.33094736       4.12701225       6.40095551       0.09103138      -0.54589955      -0.30254346
O        6.41466005       0.40304906       4.35973250       0.61183586       0.50127453      -0.94319402
O        1.74424812      -0.26718767       4.46149376       0.63837799      -0.51186338      -0.78234422
O       -0.49955665       6.87613786       4.07589266      -0.16860869       0.09846753      -0.04397344
O        0.02005821       2.12976384       4.91349001      -1.09828634      -0.54305486       0.00772345
O       -0.13941906       0.52929142       2.50549138       0.05606627       0.84553392      -0.12917624
O       -0.29183512      -0.16247637       6.51786164       0.15013745      -1.27434580       0.43918957
O        6.44553503       4.60289080       0.22131158      -0.54281731      -1.51785205      -0.71910780
O        1.73765334       4.37261527      -0.03587875       0.07092682       0.32473712      -0.87308037
O       -0.35623020       2.55860081      -0.36813063       0.43422316      -0.14596805       0.47703717
O       -0.02114386       6.54663295       0.34039326      -0.90654332       0.45786047      -0.07147881
O       -0.49634119       4.87595521       6.73147222       0.06272943      -0.26736564      -0.49331972
O       -0.21918426       4.07839053       2.00677525       0.64365265       0.11201190       0.24986282
O        2.11017391       0.31207970      -0.07730946      -0.57989177       0.20562594      -0.32070741
O        6.13935593       0.03279342       0.28453999      -0.55977104      -0.79771000       0.82800437
O        3.93812946       6.86950588      -0.40931104      -1.27503326      -0.19625697       0.77334416
O        4.33735494       2.07188163       0.28241219      -0.62895200       0.33847143      -0.15448363
O        4.30713864       0.33813906       6.76206496      -0.47921243       0.28149117       1.69438859
O        3.86028417      -0.29071315       2.14355787       0.75965150       0.60870754      -0.82344203
40
Lattice="8.703291402131459 6.592488543756667e-19 -6.35290326729485e-19 1.922639916000055e-17 8.703291402130938 -4.654571751865251e-13 4.199198718126868e-18 -3.149372647454153e-13 8.703291402130716" Properties=species:S:1:pos:R:3:momenta:R:3 group=nb1_md x=1.0 dopant=Nb pbc="T T T"
Ba       2.05660329       2.16748009       2.35421393      -6.14909522      -0.09928590       3.52824072
Ba       6.61228600       6.61544231       6.51591915      -0.73658389       6.35839549      -0.76490507
Ba       6.88934331       6.34307459       2.12767638       4.73290423      -2.19410776      -5.75607810
Ba       2.26384888       1.84945626       6.29530495      -1.04435475      -1.54200489      -3.03920476
Ba       6.49485526       2.06007645       6.36239634      -3.50110858      -0.03508390       3.61092345
Ba       2.52826794       6.41697403       2.06457408       1.40424926      -1.69270924      -4.96185328
Ba       2.33739947       6.12508849       6.52335814      -3.12246652       5.69264421       1.54404674
Ba       6.65901390       1.94126724       2.11066510       0.10458602      -1.42490560      -2.25230316
Nb       4.51978343       4.23008902       4.38269509       0.81929248      -2.17673488      -0.66164293
Nb      -0.06576006      -0.01266725       4.32061145      -0.64411787      -2.79464823      -0.75480130
Nb      -0.11315048       4.21662573      -0.02772676       0.13331342       1.81577748      -0.36392568
Nb       4.49012794      -0.09345216      -0.13016796       0.34854031      -2.78082603       3.74311851
Bi       0.09016414      -0.14316464      -0.20453439       8.85833141       0.25920828       1.70767138
Bi       4.42767922       4.09520413       0.07403897      -0.49037665      -3.94874279       1.75632238
Bi       4.40588488      -0.34538202       4.17058246       6.28905384       2.03163419      -8.72416740
Bi      -0.05372514       4.48163729       4.42114158       1.54132260      -1.38643925      -1.27826396
O        2.62174964       4.27913868       4.18366845      -1.98884984       0.14324097       0.09915955
O        6.49939620       4.86783502       4.69362218      -1.67108629       1.92228618       0.11081110
O        4.84983776       2.34918316       4.49293486       0.71566332      -0.18995713       0.36637686
O        4.49855597       6.39235953       4.91281300       0.29553476      -1.10617303      -0.29182189
O        4.68009510       4.68417809       2.45581274      -1.03703227      -0.41131419      -1.46640313
O        4.45244780       4.03931311       6.55677105      -0.80674666      -0.68032119       1.18392999
O        6.73127949      -0.23614782       4.28032394      -0.04858141      -0.29930686       1.64867552
O        2.14018012       0.33363235       4.25031902      -0.79510363       0.05519758       0.12018442
O        0.34834816       6.57060065       3.94985005       0.34064483       0.41844557       0.00781560
O        0.00947766       2.05250373       4.42929477       0.30122511      -0.61261710       1.61653165
O       -0.04829115       0.19813110       2.36724303       0.25616576      -0.72253657       0.43776682
O        0.05681793      -0.21615350       6.46987604       1.05830606      -0.27620982       0.20808457
O        6.75158570       3.90516913      -0.26709943      -0.33075362       0.27253927       0.53042133
O        2.13771754       4.42122579       0.28050914       0.99347718       1.39874572      -0.87759700
O        0.26504503       2.11810246      -0.29167025       0.04540491       0.99143907       1.14077646
O        0.02076017       6.22017714       0.27664822       0.60322305      -1.33814384       1.58176241
O        0.17082347       4.58867591       6.56123548      -0.22451864      -0.78478111       0.36462065
O       -0.16998239       3.87869767       1.95885500       0.02552213      -1.53182092       2.21054690
O        2.50860167      -0.22404945       0.01021612       0.30505590       1.70388858      -1.95344950
O        6.52565905      -0.08946083       0.31383911       0.33542141      -1.50955231      -0.20254275
O        4.35755182       6.60990447      -0.61145833       1.24391004       0.09841881       0.03053425
O        4.39351631       1.93932815       0.56513685      -0.81697914       0.31056008       0.61510251
O        4.59103916       0.48759929       6.77249879      -0.98668153      -0.90208058       1.85100957
O        4.39968892      -0.67510086       2.13103998      -1.33880828      -0.55493315       0.99413337
40
Lattice="8.703291402131459 6.592488543756667e-19 -6.35290326729485e-19 1.922639916000055e-17 8.703291402130938 -4.654571751865251e-13 4.199198718126868e-18 -3.149372647454153e-13 8.703291402130716" Properties=species:S:1:pos:R:3:momenta:R:3 group=nb1_md x=1.0 dopant=Nb pbc="T T T"
Ba       1.87718909       2.17607191       2.42401518      -5.89870760      -0.06677560       0.03365661
Ba       6.57599906       6.76170308       6.49304752       0.13529075       2.80918033      -0.00846067
Ba       6.96651251       6.33511306       2.01970196      -0.91910045       0.72055688      -1.06117085
Ba       2.22281469       1.81985239       6.24692664      -1.81048538      -0.55919807      -0.52220733
Ba       6.49959199       2.07244972       6.49791720       0.99140081      -0.13829124       4.15404051
Ba       2.47342918       6.27852499       1.95866125      -4.84938389      -7.38520006      -1.39339405
Ba       2.28145333       6.27521843       6.55905407      -0.46489383       4.65966533      -0.22645358
Ba       6.62967258       1.85150839       2.03748208      -2.37162463      -3.14985503      -1.67234087
Nb       4.52325161       4.25255212       4.39321094      -1.22263520       1.77818664      -0.03985293
Nb       0.06731884      -0.08418385       4.28220346       5.08569336      -0.59768470      -1.14674571
Nb       0.03639963       4.19465674      -0.04353997       4.61313908      -2.42956664      -0.25830038
Nb       4.44838825      -0.16771349       0.05906964      -0.46577078       1.29054054       1.93710397
Bi       0.28512717      -0.11231748      -0.10287521       9.30067232       3.47178457       7.18611188
Bi       4.39748447       4.00827825       0.06377953      -1.25260073      -4.68733719      -2.30496512
Bi       4.48853247      -0.30296285       4.07436371       3.36947674       5.02151364      -2.66097725
Bi      -0.02637268       4.42842229       4.38600208       1.67107487      -4.80924304      -2.60286218
O        2.35333291       4.28251852       4.26538119      -0.02573181      -0.46595184       0.25215792
O        6.50982451       4.74987887       4.49075900       0.59637473      -1.25478366      -0.07416511
O        4.92473863       2.37247977       3.99875979      -0.54558621      -0.06623803      -2.39985086
O        4.10837870       6.43974047       4.71092248      -1.97345886       1.00298306      -0.55870479
O        4.59644516       4.50936902       2.49881983      -0.76202985       0.17165925      -0.77003452
O        4.14859194       3.76027877       6.30371750      -0.64814125      -0.68116664      -1.14641317
O        6.62723359      -0.34849893       4.57615637       0.02323692      -0.18487279      -0.26807495
O        2.03858340       0.12436882       4.20354876      -0.02471298      -0.62826794      -1.04517834
O        0.32965443       6.63802207       4.15543984      -0.98479477      -2.25607041       1.00569633
O       -0.30707627       1.88164703       4.84937382      -1.29562305       0.06701989       0.66974411
O       -0.04449229       0.16969881       2.19118671      -0.24553498       0.18943713      -0.79608692
O        0.25687242      -0.42686942       6.35281330       0.94549298      -1.51743266       1.11309939
O        6.71688929       4.15501049      -0.06433154      -0.41189350       0.80552147       1.31149038
O        2.23704042       4.61424733       0.04054880       0.23149815       0.17026791       0.56170047
O        0.26677877       2.22914714      -0.08842078       0.16685649       0.02260386       0.62721901
O        0.11630961       6.25089032       0.42404846       1.87653359       1.60007705      -0.05032480
O        0.08677054       4.49500411       6.80909357      -0.15612497       0.19854155      -0.25842698
O       -0.20260828       3.90904174       2.17541855       0.21812522       1.54723016       0.27487012
O        2.34042562       0.01049961      -0.23559362       0.55110514      -1.02470042       0.65516206
O        6.55387234      -0.10752901      -0.00334551      -0.95356700       2.03577703      -1.69514497
O        4.72762791       6.61183544      -0.22330954       0.20613498      -2.61624584       1.49942029
O        4.36477465       1.91499961       0.76402767       0.34729043       0.02367184       0.67521488
O        4.51406533       0.42296444       6.75408233       1.12210834      -0.38986984      -1.01115362
O        4.41468593      -0.65929782       1.90022470       0.46958043       0.36824284      -0.14891988
40
Lattice="8.703291402131459 6.592488543756667e-19 -6.35290326729485e-19 1.922639916000055e-17 8.703291402130938 -4.654571751865251e-13 4.199198718126868e-18 -3.149372647454153e-13 8.703291402130716" Properties=species:S:1:pos:R:3:momenta:R:3 group=nb1_md x=1.0 dopant=Nb pbc="T T T"
Ba       1.78561188       2.21042014       2.38480501      -0.49835189       0.27691016      -3.62464437
Ba       6.60245476       6.80963653       6.49905195       1.96879371       0.51268415       0.88062319
Ba       6.89120792       6.33999269       2.00117417      -3.66469511       0.79425163       1.17004613
Ba       2.20822226       1.84040754       6.25908385       1.26152340       1.69663254       1.28933843
Ba       6.51762754       2.06527547       6.62159909       0.80270525      -0.25426783       3.55067550
Ba       2.29198337       6.11195268       1.96492275      -6.35307134      -3.18473172       1.66736521
Ba       2.25734441       6.36217618       6.52921763      -1.14124425      -0.00321479      -0.56536548
Ba       6.56935979       1.80244997       1.98288020      -2.38816955       0.01306268      -1.64259688
Nb       4.47195590       4.24830899       4.28242457      -4.14280035      -0.10865393      -3.98832187
Nb       0.18557248      -0.21376527       4.35745904       0.77544890      -7.30111567       2.73777288
Nb       0.20273614       4.17627181      -0.01981443       1.98217893       1.84190331       0.08788761
Nb       4.51157037      -0.14709095      -0.01558065       1.59542348      -0.14620752      -2.79780840
Bi       0.44148825      -0.08681509       0.01978022       6.62933694      -1.32363375       4.98417610
Bi       4.40000702       3.98341548       0.01077405       0.08270806       1.82678559      -2.78609756
Bi       4.54696205      -0.17521585       4.09315535       2.75205925       5.97558528       4.65490032
Bi       0.00072622       4.35411908       4.37752252       2.17902555      -2.24647729       1.22851916
O        2.23185954       3.94425834       4.21461875      -1.52838605      -1.39193953      -0.56452203
O        6.29251884       4.58125312       4.71311381      -0.62098098       0.11692108       1.03729072
O        4.64090881       2.44234247       3.81090201      -0.98559325      -0.58577924      -0.21572886
O        4.01800239       6.33276193       4.53326116       1.27526096      -0.65218800      -1.17710271
O        4.35513561       4.66854309       2.16073704       0.07480993      -0.31753654      -0.39785322
O        4.19996730       3.77140314       6.31108062       0.77129432       1.03052971       0.63858195
O        6.71590102      -0.57521466       4.20423404      -0.54117117      -1.21534962      -1.11195508
O        2.13789360       0.13237297       4.05554222       2.12581753      -0.09583498       0.78271480
O       -0.01547052       6.46907014       4.20704537      -0.51343355      -1.06336014      -0.57927618
O       -0.16040203       1.60651413       4.72990573       1.08472057       1.22997863       0.52671031
O       -0.10119865       0.13520773       2.45579178      -0.31067376      -0.43078980      -0.70062800
O        0.28983358      -0.60070918       6.42936302      -0.07310064       1.01009632      -0.19674275
O        6.95320198       4.15221267       0.17406932      -0.10895106      -0.43563305       0.08723534
O        2.11514824       4.16387206       0.13286698       2.23273563      -2.31548282       0.14940484
O        0.44494162       2.24689044      -0.01365053       0.51881483      -0.55996585      -0.75690451
O        0.30794435       6.51713906       0.18028791      -1.30732687       0.39910269      -1.42661505
O        0.14079175       4.47674898       6.72169987       0.51754166      -0.47361616      -0.69722294
O        0.10875414       4.28325084       2.07062018       1.70049194       1.18069482       0.24707108
O        2.46063039      -0.29536303      -0.07663848      -2.08459917      -1.28549300       0.13567688
O        6.48253958       0.48586591      -0.33825850       1.86650921       1.24050393       0.24411332
O        4.43573427       6.53687537      -0.21412692      -0.86387304       1.50820689      -1.57623314
O        4.13926989       1.75352104       0.59782967      -1.83580455       0.09168623      -1.20617576
O        4.42304259       0.01539440       6.67940057      -1.18603535      -1.78503994      -0.78228538
O        4.69455886      -0.59186711       1.99108320       2.23918477       0.00204379      -1.30604092
40
Lattice="8.703291402131459 6.592488543756667e-19 -6.35290326729485e-19 1.922639916000055e-17 8.703291402130938 -4.654571751865251e-13 4.199198718126868e-18 -3.149372647454153e-13 8.703291402130716" Properties=species:S:1:pos:R:3:momenta:R:3 group=nb1_test x=1.0 dopant=Nb pbc="T T T"
Ba       2.23781525       2.33842761       1.99552422      -4.29979189       6.57429669       5.52144344
Ba       6.08779211       6.61265136       6.69668153       4.44320318       0.58227270       1.71762384
Ba       6.31645536       6.43637326       1.99568411      -2.19196694      -0.11323030      -1.33236169
Ba       2.17289927       2.24203017       6.60611901      -3.09403267       1.46178403       0.68609094
Ba       6.33986638       2.22983463       6.49347819      -0.52322030      -0.93481035      -0.99233775
Ba       1.94407979       6.39764904       1.83164578       2.72585744       0.92831606       0.23961760
Ba       2.17592034       6.56757517       6.48820094      -0.28980988      -0.33739800       3.68408728
Ba       6.57886212       2.27857467       2.03134918      -2.62075467      -2.11520345      -2.90193022
Nb       4.40480736       4.48528204       4.14436955       0.63781472       1.13418390      -1.54021807
Nb      -0.16177793       0.07106509       4.04112339       4.19037704       2.21531563      -2.50713506
Nb      -0.22587619       4.40892912      -0.21516418       2.81670868       4.83257822      -2.82472955
Nb       4.14386662       0.10387717      -0.16891075      -1.46462231      -0.53047262       0.84094127
Bi      -0.11687913       0.04395821      -0.18444212      -1.86935258      -1.10849593      -1.12450863
Bi       4.19968155       4.36712659      -0.12547673      -2.49840339      -3.68541871      -2.81042916
Bi       4.07907972       0.18443678       4.15500692      -1.57959818      -3.63087940       0.29107703
Bi       0.13751922       4.53198451       4.09259778      -2.07236855      -2.28336598       0.55375822
O        2.26741853       4.64747750       3.79849830       0.97064147      -0.61453072      -0.14863902
O        6.34459409       4.22852530       3.94460317      -0.12820982       0.24015880       0.28736715
O        4.02869622       2.40717466       3.91162459      -0.99674840      -1.00773605      -0.49791372
O        4.58138472       6.38202811       4.25856289      -1.21277584       0.10942265      -1.98856028
O        4.28401183       4.51170342       2.05846011       0.30425194       0.31075165      -0.38335448
O        4.20045769       4.23387315       6.08140636      -0.40258195      -0.76723439       0.78330078
O        6.52798683       0.37402967       3.91566328       0.77457219       1.33851878      -1.47850052
O        1.93288387      -0.42686802       4.18969869       2.02148359       0.66231710      -0.74944180
O       -0.56078459       6.63101875       4.14620771      -0.77644323      -1.12141981       0.07887568
O        0.36737383       1.79927493       3.43673826       0.27020462       1.03544061      -0.66177377
O       -0.06430660      -0.30049470       1.91082126       0.63880189       0.14483179      -1.50049594
O       -0.15475686       0.29880808       5.84345270       0.53169708      -0.10785219       0.42571610
O        6.53456941       4.76051895      -0.41930027      -1.19250933       0.36400555       0.12715139
O        1.93137062       4.27635058      -0.26684719       0.23600884       0.33956982       0.19008026
O       -0.45536046       2.27916294       0.16849813      -0.96066187       0.42478517      -0.24269671
O        0.05974028       6.38960704      -0.56727694       0.47679515      -0.19020712      -0.21997909
O       -0.11960850       3.81945792       6.60578178      -0.29592449       0.12125447      -1.26975338
O       -0.24153326       4.40785733       1.77753717       0.61988710       0.05980460      -0.40713977
O        2.12066681       0.38629321      -0.24561400       0.61199526       1.34830811       0.17385566
O        6.07445096      -0.14362884      -0.16634285      -0.55342311      -0.00941552      -0.25706319
O        3.67709441       6.67255141      -0.14484858      -0.22343814       0.02523419       0.56064750
O        4.27674606       2.07519076      -0.31010483       0.12919553       0.12384613      -0.22225168
O        4.25252134       0.13490813       6.55051547       0.17662095      -1.90576392      -1.22832091
O        4.09373560      -0.00107800       1.76427006      -0.17985198      -0.42339392       1.55067456
40
Lattice="8.703291402131459 6.592488543756667e-19 -6.35290326729485e-19 1.922639916000055e-17 8.703291402130938 -4.654571751865251e-13 4.199198718126868e-18 -3.149372647454153e-13 8.703291402130716" Properties=species:S:1:pos:R:3:momenta:R:3 group=nb1_test x=1.0 dopant=Nb pbc="T T T"
Ba       2.12627650       2.52544263       2.09040109      -4.10613110       6.35623261       1.42783591
Ba       6.23514735       6.63517806       6.63434917       5.55773417      -0.78060536      -5.66901625
Ba       6.26461695       6.48993431       1.99671812      -0.11453365       3.32340190       0.09926626
Ba       2.05364381       2.28493467       6.58412290      -4.78250076       0.37718950      -2.13054607
Ba       6.32873823       2.21244810       6.47751327       0.30953535      -1.83687066      -1.54900176
Ba       2.02099131       6.46732682       1.88162389       1.88100753       3.89482459       3.41469520
Ba       2.18872129       6.57888951       6.50370232       1.12397575       1.74346694      -2.62917208
Ba       6.47948751       2.20448956       1.96067372      -3.96340979      -1.95435764      -2.33508166
Nb       4.39038281       4.47109459       4.11016566      -1.65401694      -1.92095050      -0.42207049
Nb       0.03713245       0.14422743       3.95977959       5.35349022       0.83360094       0.71547562
Nb      -0.11044441       4.48099747      -0.35586844       0.96973401      -0.76595571      -2.45912684
Nb       4.09444729       0.06579013      -0.08771993      -0.55278878      -0.66770329       1.92884165
Bi      -0.17046830       0.05816670      -0.20720405      -4.27940915       2.49856079      -1.11153076
Bi       4.17187693       4.30087381      -0.16610005      -0.04597087      -2.32303709      -1.88026039
Bi       4.08156168       0.10537720       4.13518859       1.10161070      -4.77475310      -1.05617522
Bi       0.03508827       4.49831562       4.11878636      -7.84235995      -0.96577738       1.42184621
O        2.21431706       4.55210484       3.93002250      -0.87041500      -0.09314244       0.72219666
O        6.22327177       4.05524290       4.07723609      -0.43252582      -1.06188812       0.65260523
O        3.93601612       2.38118244       3.97157325       0.50369112      -0.02981957       1.00801052
O        4.35010741       6.39159738       3.95159513       0.19203742      -0.27708583      -0.50009131
O        4.42355921       4.43086134       1.95496346       0.47653156      -1.23227901      -0.75577248
O        4.23618298       4.27143967       6.04696952       0.60656639       0.67250400      -0.51573932
O        6.88138659       0.45127686       3.77470331      -1.93317436      -0.95945022       0.10786479
O        1.98814370      -0.42471380       4.05103204       0.30936400       0.15656962      -0.30560936
O       -0.45935599       6.66097465       4.21889156       0.73901172       0.82322099       1.06542667
O        0.17075846       2.07884078       3.71161726       0.01932623       0.84328715       1.64897542
O        0.02206816      -0.55689701       2.01640187       0.11665534      -0.18116883       1.53024618
O       -0.04283448       0.26467988       6.02037120       0.73558811      -0.09365745      -0.17104299
O        6.47810470       4.68770766      -0.17351354      -0.13262761      -0.25843923       0.74550926
O        1.82573673       4.16783798      -0.23950675       0.82951871      -1.37147271       0.20503900
O       -0.53727835       2.38073814      -0.18375706       0.00093209       0.06476072      -1.31017759
O        0.10919466       6.43807089      -0.56329972      -0.11333769       1.32284524       0.04075238
O       -0.11904153       4.06866012       6.37904816      -0.07267311       1.84728800      -0.59284299
O       -0.04601490       4.68719839       1.63642773       0.55546354       1.33375799      -0.67629564
O        2.15664231       0.44495726      -0.27530178       0.60301725      -0.55003978       0.20380505
O        6.18505853      -0.23384184      -0.26429378       0.79570845       0.00394412       0.16156487
O        3.91679393       6.83717226      -0.22237378       0.95847613      -0.94438001      -0.05604715
O        4.46192475       2.09658865      -0.22254839       1.17432838       0.51637517       0.34861100
O        4.12929672      -0.36835390       6.47525845      -0.81460778      -0.80709486      -0.28201345
O        4.10218922      -0.01072631       1.75767019       0.46451079       0.46450315       0.10560303
40
Lattice="8.552380842923078 -3.389530148358811e-17 -7.634305876378673e-18 2.011300372436434e-14 8.552380842923252 -5.564457955665544e-14 4.611096388248346e-15 -7.473005742142904e-14 8.552380842922117" Properties=species:S:1:pos:R:3 group=ta0.25_min x=0.25 dopant=Ta pbc="T T T"
Ba       2.10674310       2.10674310       2.10674310
Ba       6.44563775       6.44563775       6.44563775
Ba       6.44563775       6.44563775       2.10674310
Ba       2.10674310       2.10674310       6.44563775
Ba       6.44563775       2.10674310       6.44563775
Ba       2.10674310       6.44563775       2.10674310
Ba       2.10674310       6.44563775       6.44563775
Ba       6.44563775       2.10674310       2.10674310
V       -0.00000000      -0.00000000       4.27619042
V       -0.00000000       4.27619042      -0.00000000
V        4.27619042      -0.00000000      -0.00000000
Ta       4.27619042       4.27619042       4.27619042
Bi      -0.00000000      -0.00000000      -0.00000000
Bi       4.27619042       4.27619042      -0.00000000
Bi       4.27619042      -0.00000000       4.27619042
Bi       0.00000000       4.27619042       4.27619042
O        2.28824234       4.27619042       4.27619042
O        6.26413850       4.27619042       4.27619042
O        4.27619042       2.28824234       4.27619042
O        4.27619042       6.26413850       4.27619042
O        4.27619042       4.27619042       2.28824234
O        4.27619042       4.27619042       6.26413850
O        6.62324069      -0.00000000       4.27619042
O        1.92914015      -0.00000000       4.27619042
O        0.00000000       6.62324069       4.27619042
O        0.00000000       1.92914015       4.27619042
O        0.00000000      -0.00000000       2.32766386
O        0.00000000      -0.00000000       6.22471699
O        6.62324069       4.27619042       0.00000000
O        1.92914015       4.27619042       0.00000000
O        0.00000000       2.32766386       0.00000000
O        0.00000000       6.22471699      -0.00000000
O        0.00000000       4.27619042       6.62324069
O        0.00000000       4.27619042       1.92914015
O        2.32766386       0.00000000       0.00000000
O        6.22471699       0.00000000       0.00000000
O        4.27619042       6.62324069      -0.00000000
O        4.27619042       1.92914015       0.00000000
O        4.27619042      -0.00000000       6.62324069
O        4.27619042       0.00000000       1.92914015
40
Lattice="8.552380842923078 -3.389530148358811e-17 -7.634305876378673e-18 2.011300372436434e-14 8.552380842923252 -5.564457955665544e-14 4.611096388248346e-15 -7.473005742142904e-14 8.552380842922117" Properties=species:S:1:pos:R:3:momenta:R:3 group=ta0.25_md x=0.25 dopant=Ta pbc="T T T"
Ba       1.71629306       2.33772596       2.14275783      -0.12462655       3.00935432       0.61684545
Ba       6.27963875       6.50528811       6.56736539       0.06743167      -0.44876250      -0.46397458
Ba       6.47801277       6.45560775       2.04705951       0.59790506       0.35783016      -0.82649239
Ba       2.04273497       2.15960855       6.34342517      -0.28817033      -0.60831001       1.47620630
Ba       6.43450651       2.09800806       6.48950509      -1.90901784       0.72498028      -3.83379381
Ba       2.16935239       6.61449465       2.09702158      -1.69536409       1.83540744      -0.20778794
Ba       2.20782993       6.50880588       6.30493303      -0.91245560       0.89255657      -1.81450286
Ba       6.33037414       2.13144719       2.19722962      -0.19136520      -1.01738096      -0.29488357
V       -0.08406578       0.08525713       4.16531904      -1.20946179      -1.51976307       2.15406091
V       -0.05115740       4.40036463      -0.17952545      -0.32711072      -0.11320917      -2.45493641
V        4.10156000       0.05184272       0.05001729      -0.76104709       0.89252347      -0.86136928
Ta       4.20289744       4.28517828       4.13796940      -1.53320160      -0.76736274      -0.68367342
Bi      -0.01717599       0.07571103      -0.10770987       1.27039276      -1.21577220       1.17069232
Bi       4.23830821       4.22981059      -0.09739140      -1.48427974      -0.95710035       0.75651188
Bi       4.13152062       0.10380253       4.32592532       1.84431305       0.79241829      -1.60459867
Bi      -0.12976290       4.53691270       4.23281796       2.92905179      -0.37821691       2.85104520
O        2.16327802       4.16310656       4.24668412       0.72527029      -0.70069429       1.08675574
O        6.15239429       4.39057186       3.88907460       0.09148972       0.37636176       0.00039477
O        4.38610274       2.33609591       4.45577027      -0.42797727       0.06099237       0.80300897
O        4.09802614       6.27019556       3.81232709      -0.05683360       0.22923584      -0.08037185
O        4.06758703       3.87484312       2.19849588       0.94829608       0.22710133       0.71107837
O        4.38388561       4.68176983       6.07116550       0.45889963       0.75670314       0.42061750
O        6.70734575      -0.08701967       4.10304797      -1.25198500       0.18745324       0.87573299
O        1.94987296       0.14277872       4.43655997       0.36510235       0.37574592       0.23723802
O        0.17344349       6.68090635       4.45796848      -0.05179866      -0.32437552       0.00873058
O       -0.07657367       1.90144818       4.11241545       0.26702621       0.06904369       0.41491160
O        0.17675892      -0.14331746       2.40563921      -0.50270488       0.62955037      -0.19431901
O       -0.20379147       0.23951293       6.32603173       0.33302190      -0.53417545      -0.02807895
O        6.38125171       4.15129027       0.19693952       0.32616746       0.09654163      -0.81131166
O        1.79810547       4.35391038      -0.24530373      -0.23725878      -0.78154720       0.02234891
O       -0.00327193       2.33981393      -0.05083899       0.60601147       0.86649287      -0.73644351
O       -0.33480795       6.23453238      -0.23251610      -1.24420137       0.35874851      -0.46602469
O       -0.36209650       4.17199617       6.61532337      -0.15206120       0.90784806      -0.78582138
O        0.03938031       4.58079681       1.90767219       0.43644052       0.21259146       0.17514723
O        2.18588713       0.07493090      -0.18210526      -0.21149218      -0.31227201       0.16658563
O        6.01080940       0.24060982       0.02189631      -0.01050894      -0.02474124      -0.23025335
O        4.24421403       6.76487542       0.10120543      -0.40931528      -0.31164697       0.34421208
O        4.10021297       2.06409906      -0.63614542      -0.42601297       0.42153357       0.72935533
O        4.23276418      -0.27100712       6.47098218       0.28641683      -0.27295640      -0.76300627
O        3.92940784       0.62666335       1.73396885      -0.54544951       0.25298300      -0.32975361
40
Lattice="8.552380842923078 -3.389530148358811e-17 -7.634305876378673e-18 2.011300372436434e-14 8.552380842923252 -5.564457955665544e-14 4.611096388248346e-15 -7.473005742142904e-14 8.552380842922117" Properties=species:S:1:pos:R:3:momenta:R:3 group=ta0.25_md x=0.25 dopant=Ta pbc="T T T"
Ba       1.73952830       2.42319273       2.14031830       1.23858547       2.95562149       0.07293642
Ba       6.28134895       6.51517941       6.53229952      -0.21010129       1.60563012      -2.21490565
Ba       6.50643046       6.47298701       1.99899330       0.77055988       0.73440610      -2.00629575
Ba       2.01914588       2.16385369       6.39647884      -1.27821495      -0.39022763       1.51748878
Ba       6.36518539       2.11177921       6.38477160      -2.39120656       0.27892935      -3.50122601
Ba       2.11721405       6.65269777       2.09312874      -2.74706764       1.21898266      -0.30681400
Ba       2.18321794       6.52581033       6.27684753      -0.30036444       0.87831065       0.13316451
Ba       6.31591993       2.12192675       2.16850308       0.51102994      -0.26721921      -1.78353828
V       -0.18963802       0.07338092       4.29697243      -1.27267287       1.06522549       1.32520828
V       -0.08638148       4.37006421      -0.30922618      -1.02456389      -0.39883907      -0.86139480
V        4.15109740       0.13653616       0.04030056       1.21730767       0.10195996       0.39843582
Ta       4.18439016       4.29906872       4.15970709       0.48417157       1.73568089       3.65880270
Bi      -0.01483432       0.05919820      -0.09389392      -1.20552555      -0.73211423       0.89859592
Bi       4.21245144       4.19448810      -0.09003841      -1.01775570      -1.86743574      -0.54358820
Bi       4.17045661       0.11141928       4.26332627       0.76862982       0.14323804      -2.94674138
Bi      -0.07916413       4.51285864       4.24255994       2.57302787      -1.69100098      -1.98012734
O        2.30219877       4.09423969       4.53230856      -0.28228241      -0.03879608       0.57041908
O        6.26652686       4.49105946       3.95279484       0.33709157       0.08653479       0.66044829
O        4.41083493       2.37000143       4.76358117       0.66380923       0.49009104       0.47840563
O        3.98838591       6.19758574       3.85285913      -0.84015647      -0.45802850       0.46793425
O        4.08847750       3.88666852       2.25780658      -0.78573696      -0.57969256       0.33864356
O        4.37112656       4.67502505       6.24266979      -0.17655489      -0.71587512       0.11165080
O        6.61438851      -0.12528354       4.27666058       0.60024259      -0.67958323       0.07001058
O        1.97629468       0.18589509       4.47078677       0.04534818       0.03441292      -0.30379369
O        0.13978478       6.66261705       4.47516079      -0.30411455       0.16159589      -0.19636974
O       -0.18900249       1.86057444       4.26853005      -1.03595570      -0.10420816       0.54820135
O        0.01580493      -0.03250608       2.44856094      -0.76811875      -0.01163254       0.19273641
O       -0.14891002       0.06753927       6.25546204       0.10182748      -0.65326034       0.06981246
O        6.47893091       4.16839551       0.04864586      -0.33587285       0.03472041      -0.09051353
O        1.71246627       4.43495119      -0.32430900       1.05367087       1.20103927      -0.52965819
O       -0.03436458       2.40982875      -0.02987667      -0.44052481      -0.52243357       0.61871811
O       -0.27285974       6.26298852      -0.16851226       1.30426732       0.59561969       0.92282706
O       -0.36111583       4.32211287       6.46510348       0.05438986       0.02740341       0.34133333
O        0.13707735       4.60156591       1.98849789       0.42669386       0.06309500       0.01918610
O        2.17214054      -0.09269948      -0.32274492      -0.29485356      -0.45192468      -0.86848784
O        5.94741325       0.20416231       0.01690425       0.16728008       0.28893850      -0.52878905
O        4.15292924       6.92399109       0.34818388       0.07554762       0.43082872       0.43230852
O        4.02940670       2.09841701      -0.40206551      -0.08646985      -0.59297281       0.86729123
O        4.28098203      -0.27091276       6.37302236       0.54279304       0.19232091       0.73131643
O        3.84009695       0.47047913       1.74953476      -0.21531028      -0.24449298       0.95159880
40
Lattice="8.552380842923078 -3.389530148358811e-17 -7.634305876378673e-18 2.011300372436434e-14 8.552380842923252 -5.564457955665544e-14 4.611096388248346e-15 -7.473005742142904e-14 8.552380842922117" Properties=species:S:1:pos:R:3:momenta:R:3 group=ta0.25_md x=0.25 dopant=Ta pbc="T T T"
Ba       1.78202818       2.47452290       2.15261759       1.51729450       0.05295306      -0.09178503
Ba       6.29236333       6.55054032       6.43684289       1.17555851       0.73663864      -4.05731873
Ba       6.51666290       6.46738265       1.95117843      -0.32205679      -1.22737355      -0.27810914
Ba       1.96440962       2.16006922       6.40815036      -2.16653945       0.46006374      -0.18106469
Ba       6.30216660       2.12730755       6.32225895      -1.62607028       0.57067181      -0.98435700
Ba       2.01819438       6.68185094       2.06568273      -3.30515585      -0.18654685      -1.53183941
Ba       2.16345453       6.55359073       6.30937435      -1.13975685       0.48252531       1.24096932
Ba       6.35194767       2.14919326       2.09594796       1.43487274       1.26049896      -2.59698871
V       -0.20899625       0.11851614       4.32263461      -0.17518855       0.74848719      -1.01235350
V       -0.05774595       4.37287320      -0.20003553       1.20844061       0.02646710       3.13382653
V        4.23886293       0.07631506       0.10496515       0.92977482      -0.89344960       1.12191421
Ta       4.21593596       4.32883393       4.25865347       1.61351201       1.09040550       5.07808908
Bi      -0.03378017       0.06829403      -0.07151869      -0.64737238       1.74992925       0.86841963
Bi       4.19557904       4.17496625      -0.09337653      -0.66291716      -0.09088775       0.19721938
Bi       4.17602678       0.11618531       4.23865239      -0.27249002       0.29301820      -0.13917633
Bi      -0.06334731       4.47886257       4.18014299       0.05839953      -2.94723723      -3.74194730
O        2.18863041       4.08390754       4.49488982      -0.46587519       0.13741101      -0.03234624
O        6.11250368       4.50678711       4.06074542      -0.46737309       0.16355420      -0.18829000
O        4.44218240       2.25222234       4.46157005      -0.49853407      -0.35171529      -1.67720595
O        3.98399120       6.25182119       4.00145206       0.00292546      -0.07119482       0.61528911
O        3.97467689       3.78088453       2.39769406       0.56370972       0.83066595       0.11254960
O        4.45450408       4.51710761       6.27711330       0.15587898      -0.43954180      -0.14760235
O        6.58252013      -0.34276534       4.24724122       0.26216666      -0.43451131      -0.18632231
O        1.95700727       0.29527328       4.34619768      -1.07062623       0.63818861      -0.23063550
O        0.12794583       6.56676349       4.41405745       0.56974228      -0.05994764       0.13936709
O       -0.39430705       1.90420584       4.34315697      -0.60940632      -0.70756275       0.13061721
O       -0.04709886      -0.03002292       2.47882564      -0.01846149       0.18775804       0.38208741
O       -0.22637680       0.07259686       6.27961819      -0.24461630       0.58071110      -0.45836595
O        6.44619180       4.20515372       0.12253704       0.04021539       0.58954716       0.77977502
O        1.75469348       4.44892354      -0.35256146      -0.72711918      -1.09403959       0.51021464
O       -0.05686087       2.47737345       0.10756368       0.38266506       1.01985912       0.19813236
O       -0.15262460       6.25639194      -0.03444227      -0.38839072      -0.36002193      -0.04976727
O       -0.38571509       4.26914986       6.59623321      -0.01530276      -0.43469306       0.53448228
O        0.14310342       4.54141814       2.05784253      -0.42212610      -0.22617495       0.15293624
O        2.11646484      -0.01080253      -0.37809061       0.41200171       0.84581428       0.90990585
O        6.02555795       0.28100930       0.05420238      -0.43361521       0.24786060       1.05790340
O        4.30731657       6.81763969       0.32832566       0.60707496      -0.32987674      -0.42686816
O        3.98460652       2.01088353      -0.34398204      -0.00731287       0.32028289      -0.48358642
O        4.39136204      -0.18958208       6.48095548      -0.07525374       0.61233771       0.00642101
O        3.91919065       0.52619123       1.83409057       1.05830142      -0.16264049      -0.76780230
40
Lattice="8.552380842923078 -3.389530148358811e-17 -7.634305876378673e-18 2.011300372436434e-14 8.552380842923252 -5.564457955665544e-14 4.611096388248346e-15 -7.473005742142904e-14 8.552380842922117" Properties=species:S:1:pos:R:3:momenta:R:3 group=ta0.25_md x=0.25 dopant=Ta pbc="T T T"
Ba       2.37763418       2.13175261       2.07123109       1.66312956       4.51303259      -1.04950230
Ba       6.66395847       6.39844347       6.32801166      -3.42195215      -0.29540216       1.67549120
Ba       6.62962052       6.49337486       2.22598371      -3.41133969       1.23506338      -1.91940509
Ba       2.28499480       2.13539726       6.46744476       0.34214412      -1.25732521       1.11363256
Ba       6.48732213       2.25820788       6.60459106      -2.85462726       5.39621170      -3.67670563
Ba       2.34697150       6.65976856       2.20512237       1.40992155       0.42123812       2.13447238
Ba       2.33205459       6.29836938       6.56567818       0.09225073       2.91911498       1.91749018
Ba       6.49810447       2.05836601       2.21633756       3.10791833      -1.39866996      -0.42610690
V        0.22361520       0.08848261       4.14973205      -1.71241916       0.79674032       2.00937830
V        0.07088805       4.30158234       0.04487141      -0.06962866      -4.51261495       0.90460064
V        4.49730558      -0.09379109      -0.03658560       0.54472519      -0.90149700      -2.62362131
Ta       4.47465595       4.20307126       4.14238551       0.87880634      -1.79225047       9.31440540
Bi       0.26453990       0.10099107      -0.06515376       6.60203933       0.15944577       4.07100157
Bi       4.38036546       4.31874580      -0.08309900       0.39547210      -4.92321886      -2.50657653
Bi       4.51362319       0.04908144       4.37215274      -2.06083457      -2.23967276       1.69716576
Bi       0.10929977       4.25014779       4.17949592      -0.46604043      -1.14373579      -1.96679386
O        2.56631050       3.73112344       4.19451998       0.14005421       0.33936205       0.02749536
O        6.39753579       4.43333479       4.56861831       0.17818896      -0.39838785       1.45047358
O        4.66387081       2.20592010       4.20653249      -1.06324079      -0.20529901      -2.62869647
O        4.25083350       6.10434224       4.18660842       0.17157289      -0.29589908      -0.18457018
O        4.80257145       4.19480808       2.33399741       0.07893011       0.66111919      -0.08265035
O        4.13104104       4.31238687       6.30060965      -0.67515081      -0.45514734       0.26239054
O        6.54183845      -0.33452262       4.30714028       0.89424644      -0.98573619      -2.14285110
O        1.95815576       0.20079143       4.12771989      -1.31277243       1.10471971       0.80727572
O        0.34542855       6.38051535       4.04464740       0.19026587       1.45181987       0.29198033
O       -0.14298084       1.74013670       4.72693196       0.55900425      -1.46233305      -0.28887944
O       -0.21486977      -0.14209319       2.33423267       0.84118995      -1.63650684      -0.03331098
O        0.15386540      -0.30536201       6.19716869      -0.57652565      -1.95622456      -0.53644123
O        6.86169083       4.09295354      -0.02376047       0.27436499       0.22231982      -1.28415422
O        2.28634665       4.60077177       0.34584686       2.43277127       0.02238431       0.42940050
O        0.02628080       2.18458456      -0.18422384       1.23860539      -0.36622565      -2.08866947
O        0.01428435       6.04077302       0.09382711       1.71056309       1.11601909      -0.39447611
O        0.36148157       4.15857998       6.71017945      -0.12944366       0.82987997      -2.27269858
O        0.19224700       3.93495019       1.88650375       0.68942006      -0.44408752       0.36970888
O        2.51319726       0.00298723       0.26031459       1.18381636       0.40033365       0.12364415
O        6.19919911      -0.25220431      -0.69543429       0.41470375       2.14743519      -0.60829710
O        4.49088014       6.67579270      -0.40810664       0.89530229       1.44444556      -0.96166265
O        4.61735656       1.74557758       0.10212139      -0.07016495       0.20947599      -0.13093631
O        3.84621337       0.12713724       6.41588033       1.17095280       0.58092171      -1.09682137
O        4.71007523      -0.14813730       1.69496238      -0.66769464       0.89855236       0.15346821
40
Lattice="8.552380842923078 -3.389530148358811e-17 -7.634305876378673e-18 2.011300372436434e-14 8.552380842923252 -5.564457955665544e-14 4.611096388248346e-15 -7.473005742142904e-14 8.552380842922117" Properties=species:S:1:pos:R:3:momenta:R:3 group=ta0.25_md x=0.25 dopant=Ta pbc="T T T"
Ba       2.42985928       2.27353192       2.05181583       1.33924764       5.48974665       0.38432448
Ba       6.60220413       6.38996895       6.36008505      -0.76551379      -0.41023521       1.05063733
Ba       6.54130860       6.53179405       2.12773270      -3.81133851       1.58073722      -3.30888867
Ba       2.29201153       2.11778723       6.44104146       0.26691581      -0.28059393      -3.86327391
Ba       6.41821930       2.37684101       6.51158263      -1.42547191       1.90774985      -4.36684440
Ba       2.36255217       6.62636814       2.25719650      -0.38817808      -2.48175371       0.99803677
Ba       2.31705609       6.38464949       6.59084488      -1.76796065       2.49331461       0.79918448
Ba       6.59553040       2.04214531       2.15697644       3.89641876      -0.84950357      -3.12587882
V        0.10526006      -0.08778821       4.45380443      -0.38645803      -1.89724444       3.09195054
V        0.14806495       4.18939232       0.03805418       2.93195193       1.02528834      -0.57057740
V        4.65044116      -0.08540288      -0.20082690       2.75587717       0.77273493       0.54539348
Ta       4.47402317       4.17412904       4.35115454      -1.50549567       0.74748398       5.26220169
Bi       0.36271787       0.05101305      -0.04719920       4.38827818      -4.49925948       1.54952560
Bi       4.43126365       4.25222605      -0.11446570       4.44345461      -2.44761575       0.91767792
Bi       4.45042299      -0.00945978       4.39129649      -4.26902909      -3.40153149      -0.26009637
Bi       0.11018334       4.23387948       4.19699065       0.31263601      -1.76904502       2.18398703
O        2.45203355       4.05064882       4.11453876      -0.45996350       1.30490521      -0.61360781
O        6.33633395       4.20619212       4.68945782      -0.36970065      -0.39982733      -0.22648466
O        4.61736303       2.24180754       3.89404550      -0.07108017      -0.19641623       0.30767353
O        4.25554008       6.18597467       4.28079076       0.45281218       0.48561892       1.51523324
O        4.77039966       4.36080802       2.30896947       0.11932336       0.93781056       0.41320899
O        4.18799519       3.94317622       6.14705749       0.80504303      -2.20569805       0.34276920
O        6.68711075      -0.42946463       4.14187590      -0.35289793       0.59731900       1.04258335
O        1.92877695       0.33184586       4.17130881       0.30059231      -0.40259502       0.43170771
O        0.32818717       6.33500555       4.08185295      -0.28604916      -0.32361284      -0.43553926
O       -0.42265551       1.77560436       4.45187242      -1.73038536      -1.02942058      -1.15971583
O        0.17922604       0.02263615       2.26483852       1.70551894       2.15780735      -1.48465172
O        0.24032940      -0.61812260       6.10151703       0.89250983       0.71628626       0.31434522
O        6.96244358       4.25720958      -0.24765149      -0.09913969       0.90898332      -0.72169264
O        2.28991113       4.34997678       0.26380828      -1.09752131      -1.30990141      -1.10814484
O        0.53782584       2.31953635      -0.44808260       1.31088290       0.49656016       0.53438161
O        0.41281072       5.90244684       0.15898892       1.26872120      -0.95863754       0.46805664
O        0.32169885       4.44057736       6.43233655       0.16085948       0.86474530      -0.78303977
O        0.12814225       3.71016227       1.77682261      -1.23694504      -0.43749097      -1.74700886
O        2.46725147       0.04618368       0.07966930      -0.18701609       0.26023140      -1.17218594
O        6.32768939       0.44162131      -0.36989303      -0.04649450       1.39208645       2.85969179
O        4.54576556       6.63720321      -0.37406034       1.13389314       1.51038379       0.37431439
O        4.42473021       2.32202689      -0.01476076      -1.59897350       0.50230985      -0.50800568
O        4.21009497       0.13373882       6.63716026       2.13389714      -0.20004103       1.32784345
O        4.69757223      -0.17792425       1.65116178       0.11915591      -0.46734783      -1.39808119
40
Lattice="8.552380842923078 -3.389530148358811e-17 -7.634305876378673e-18 2.011300372436434e-14 8.552380842923252 -5.564457955665544e-14 4.611096388248346e-15 -7.473005742142904e-14 8.552380842922117" Properties=species:S:1:pos:R:3:momenta:R:3 group=ta0.25_md x=0.25 dopant=Ta pbc="T T T"
Ba       2.43604921       2.38363988       2.04857910      -0.85486259       2.27290799      -1.39796731
Ba       6.62227333       6.34832334       6.35410000       3.11919832      -1.58754704      -0.47320614
Ba       6.48234548       6.53071877       2.01930870      -0.79010306      -1.54593178      -4.02626928
Ba       2.29057547       2.11439172       6.33737220      -0.39353220      -1.52697015      -1.33915726
Ba       6.44154153       2.36041724       6.39495639       3.02250552      -1.97941120      -3.85476619
Ba       2.35623920       6.54578977       2.24159297      -0.16679047      -2.32803509      -2.13998058
Ba       2.25052654       6.43932995       6.56331201      -1.15347009       1.83751144      -2.41079001
Ba       6.68535480       1.99932151       2.04882839       2.38802465      -1.83774399      -3.43676513
V        0.18016672      -0.13609934       4.46883199       2.52441239      -3.22047274      -0.36552705
V        0.34554598       4.26807782      -0.07760579       0.15775756       1.20215745      -1.46526624
V        4.72765338       0.11337470       0.03908978       0.06117843       4.13306600       4.10176626
Ta       4.39698239       4.22789053       4.35633117      -4.55032244       3.99331361      -1.93886650
Bi       0.43350417       0.00924049       0.05356970       4.67898344      -0.47256162       5.77547498
Bi       4.52093971       4.26289253      -0.01134022       5.96171889       0.32585791       6.63579576
Bi       4.37130366      -0.07876792       4.36671717      -3.26744720      -4.71795538      -2.15510348
Bi       0.13291056       4.22756753       4.23844195       1.63116481       0.67449276       1.37346620
O        2.47475183       4.23989659       4.07103944      -0.13669085       0.41665946      -0.05140613
O        6.40954702       4.45325055       4.60465474       0.56538460       0.86460448      -1.07978254
O        4.52305190       2.25447218       4.17581833      -0.60589500       0.85503185       0.77280022
O        4.31512227       6.07027287       4.87252619      -0.27827236       0.04270344       3.07842562
O        4.75354082       4.59540592       2.47797320      -0.84717563       0.45590558       1.03631084
O        4.28549849       3.85733710       6.26620050       0.32547648       1.55156389      -0.30767865
O        6.55762567      -0.50804774       4.45913113      -0.74393901      -0.79987494       0.33925833
O        1.95575586       0.03763884       4.37156109      -0.07549189      -0.80866483       0.42858646
O        0.21519892       6.55718296       3.81304905      -0.62095505       1.07032691      -0.69861035
O       -0.42637247       1.49868706       4.38860608       1.26157897       2.01960948       0.12678824
O        0.52090468       0.35839463       2.10558543       0.73974786       1.50055320       2.28473986
O        0.25534207      -0.30585580       6.22059846      -1.25469505       0.60373019      -1.36290850
O        6.87531368       4.38975812      -0.47907378       0.10888484       0.15810431      -0.41956972
O        2.29425754       4.21419329      -0.13967762      -0.98379372       0.11097819      -0.62287933
O        0.30883252       2.10412183      -0.28837833      -2.04147419      -1.05443028       0.22368341
O        0.53211940       6.14650564       0.38550996      -0.30148065       0.62732353       0.27796249
O        0.44796068       4.46921441       6.34432945       0.90585125      -0.25925617       0.42847666
O       -0.11752863       3.87490570       1.64018729       0.31949412       1.85017445      -0.36890302
O        2.51740190      -0.16905768      -0.30046547       0.16519431      -2.12969098      -1.61657418
O        6.50612489       0.40507273       0.09524160      -0.36163486      -1.69994402       0.54976530
O        4.93392698       6.72649475      -0.37105640       0.50221473      -0.75011864       0.66336986
O        4.14565900       1.74508706       0.10089503       0.05984759      -1.30698942       1.33009403
O        4.58280284       0.33682314       6.31285565       0.88531292       1.67268960       0.68304062
O        4.45116421      -0.25581689       1.85390865      -1.74479924      -0.04326632       1.29368698
40
Lattice="8.552380842923078 -3.389530148358811e-17 -7.634305876378673e-18 2.011300372436434e-14 8.552380842923252 -5.564457955665544e-14 4.611096388248346e-15 -7.473005742142904e-14 8.552380842922117" Properties=species:S:1:pos:R:3:momenta:R:3 group=ta0.25_test x=0.25 dopant=Ta pbc="T T T"
Ba       2.00776254       1.75701492       2.15816867      -5.21847047      -1.35575753      -3.02328138
Ba       6.19598999       6.27886101       6.47002760      -0.47785143      -1.33119621      -1.51231128
Ba       6.29321220       6.53805128       2.19923303       0.86807112      -2.70868752       0.12730290
Ba       2.29344270       2.05155735       6.65221047      -1.47298591      -0.83793343       3.99044449
Ba       6.36310872       2.30559923       6.69400604      -1.77520406       3.43594753      -1.62362955
Ba       1.86018800       6.40711377       2.15517670      -0.67946632       0.34934623      -5.37744944
Ba       1.87381022       6.55002735       6.25800494      -0.00299373      -4.59309483      -1.46348658
Ba       6.15643028       2.17813927       2.03381972      -0.56079299       1.69454233      -0.76578255
V       -0.26816147      -0.01441547       4.34772380      -0.02219856      -0.94195942       0.51275138
V       -0.03361273       4.16079313       0.04748877       0.26190423       1.99125971      -0.89450348
V        4.06885535       0.05231084       0.13427100      -1.60102157      -0.20439688      -0.41197431
Ta       4.18615507       4.29260326       4.30445524      -0.04802254       4.70574047       3.86045238
Bi      -0.09630934      -0.21939678       0.07929351       1.90095538       1.60583079       3.12537408
Bi       4.10216854       4.42319880       0.17204392      -1.83207571       3.96929165       2.55635317
Bi       4.23056803      -0.13192150       4.40417854      -0.05975031      -0.23553985       2.15561624
Bi      -0.07880331       4.27248204       4.22809604      -0.00174542       0.99371643       4.02280520
O        2.26395067       4.70745402       4.57526921       1.63793537       1.25995854       0.22569956
O        6.29517715       3.91139423       4.23699731       0.26364207      -1.04671670      -0.86300313
O        3.96734784       2.34108191       4.06093673       1.96937137      -1.24583806       1.06789863
O        4.74689999       6.36885089       4.15849584       1.18434739      -0.38741409       0.36861268
O        4.08161609       4.59280112       2.37180321       0.61597842       1.24801444      -0.88851229
O        4.44768551       4.13605687       6.29833576      -0.98233227      -1.38244892      -0.88230970
O        6.52543395      -0.01051281       4.08311565       1.00514735      -0.86252176      -0.19870868
O        1.82709810      -0.05790842       4.34031717      -0.50479709      -1.26166855       0.18164862
O       -0.11614036       6.57953789       4.27004976      -0.84756664       0.28061344      -0.02021126
O        0.11692992       1.80198384       3.95595938      -0.42739630      -0.66127897      -0.12510813
O       -0.14558355      -0.24733355       2.10279342      -0.26141559      -1.40379247       0.10656897
O       -0.31946705       0.10196263       6.05828301      -1.07590113       0.50759421       1.00211014
O        6.38266845       4.35126106       0.30208066       1.21700468       0.43822935      -0.18164293
O        1.78465737       4.26213231      -0.38050306       0.08995289      -0.78289237       1.35186303
O       -0.24912628       2.47474389       0.07029178       0.55238093      -0.38716699      -0.03492200
O        0.04993843       6.27780411      -0.02794520      -0.16509812       0.81293320      -0.54719842
O       -0.51690058       4.34286958       6.88458080      -0.69825264       0.54490902       0.15769504
O        0.29919467       4.32469305       2.07880089      -0.23493276      -0.58119252      -0.72976227
O        2.09576349      -0.03712844      -0.09817035       1.13465737      -1.40514458      -0.24157432
O        5.90244029       0.15260289       0.40974788      -0.50533152      -0.16313576      -1.29432775
O        3.76132915       6.50945242       0.00562091       0.59523226       0.24252408       0.33388328
O        3.97544918       1.86136805       0.01864136      -0.32174399      -2.30659676       0.04740575
O        4.41801002      -0.01874741       6.72362312      -0.87564345      -0.82653342      -0.69381998
O        3.91247851      -0.13583506       1.93848265       0.37598463       1.54624172      -0.37483931
40
Lattice="8.552380842923078 -3.389530148358811e-17 -7.634305876378673e-18 2.011300372436434e-14 8.552380842923252 -5.564457955665544e-14 4.611096388248346e-15 -7.473005742142904e-14 8.552380842922117" Properties=species:S:1:pos:R:3:momenta:R:3 group=ta0.25_test x=0.25 dopant=Ta pbc="T T T"
Ba       1.82877873       1.73320419       2.10682685      -6.40160419       0.99247400      -1.02685803
Ba       6.20680502       6.24373970       6.43811764       3.09965146       0.45632144       1.05568988
Ba       6.31478123       6.45334835       2.16899214       2.00776925      -3.77591187      -1.14454253
Ba       2.24019160       2.02466435       6.67983821      -2.89482290      -0.23071982      -0.90771145
Ba       6.32860380       2.39976152       6.64125162      -0.09545937       1.68196979      -1.56419706
Ba       1.90326778       6.43624722       2.02148385       2.79395591       0.57547471      -2.82367294
Ba       1.86193443       6.42246459       6.31336734      -0.70916867      -4.95131748       3.69399349
Ba       6.15143338       2.20156192       2.03691556       0.35813223      -0.38057038       1.38985326
V       -0.14764956       0.03240654       4.44381353       1.41040602       0.15836490       1.14210688
V       -0.05484209       4.30215288      -0.03950577      -0.88392226       0.07445702       0.05196712
V        4.12372915      -0.08950970       0.13785378       2.50880232      -1.75232098       1.05292010
Ta       4.23078178       4.33894801       4.35021100       0.20389456      -2.84324936      -0.41456087
Bi      -0.10883318      -0.15528131       0.10727300      -2.40523749       5.18803497       0.09456229
Bi       4.10733427       4.49121829       0.19169064       3.32207402       1.68160680       0.02491453
Bi       4.21527314      -0.08640633       4.44768714      -1.38769130       5.16504645       0.06032061
Bi      -0.09184516       4.25623782       4.28720351      -0.04506630      -0.66010612       1.78237325
O        2.26818226       4.73027016       4.44818671      -0.93627114      -1.34740526      -1.29267719
O        6.39248235       3.95774515       4.04782573      -0.51084571       1.09205784      -0.31780918
O        4.13520465       2.31659696       4.14999810      -0.95604052       0.16558335       0.09150260
O        4.77609578       6.13893730       4.59943206      -0.97619524       1.25891449       0.73280043
O        4.03094621       4.55462743       2.34432390      -0.70343710      -1.15330857       1.20854671
O        4.32166485       4.00842480       6.35313439       0.04706508       0.61811730       1.00808011
O        6.44570104       0.06620760       3.99900484      -1.12456023       0.65579946      -0.06181812
O        1.80337051      -0.41404136       4.39111096      -1.04668536      -0.95851416       0.15060863
O       -0.38274020       6.39243185       4.36142033      -1.24967819      -1.68606572       0.89480145
O       -0.06416214       1.72624841       4.10106771      -0.04712924       0.28421676       0.95847211
O       -0.00179323      -0.42821668       2.30130470       0.86057567       0.50790070      -0.03095492
O       -0.39412022       0.01401035       6.15448725       0.78938658      -0.84487020      -0.27330244
O        6.40878836       4.48329557       0.38029067      -0.82070538      -0.34465729      -0.86659975
O        1.76315901       4.12825983      -0.01919290       0.09952348       0.79700918       0.85885203
O       -0.13666084       2.34861669       0.03608729      -0.38243407      -0.02874723      -0.69671885
O        0.00089586       6.13804817      -0.08006379       0.21948459      -1.09510525       0.29154985
O       -0.36066652       4.35238766       6.55659189       1.78560628      -0.81017989      -0.85448398
O        0.03442751       4.27796662       1.98309777      -1.58776098       0.53318213       0.41532463
O        2.07679792      -0.18160468      -0.13072627      -0.73067239      -0.23924633       0.22319573
O        5.96191409      -0.16791127      -0.04946235      -0.08144077      -1.19568358      -1.63396294
O        4.14877377       6.61529462      -0.03194097       1.26855390       1.23551851      -0.55243709
O        3.87195175       1.87944648       0.09332954       0.36857405       0.61751715       0.48382685
O        4.09537603      -0.15503493       6.51875306      -1.76209814       0.09133388       0.71854743
O        3.92601904       0.01909143       1.98685826       0.14258044      -0.72193229      -1.10658178
40
Lattice="8.604021732420122 -5.149003211088349e-18 1.971005969472598e-17 1.2281924980607865e-17 8.604021732418943 -1.6784431937988192e-13 2.2444507175158703e-16 -3.8958830886067843e-13 8.593801251918908" Properties=species:S:1:pos:R:3 group=ta0.5_min x=0.5 dopant=Ta pbc="T T T"
Ba       2.15100543       2.15100543       2.07759942
Ba       6.45301630       6.45301630       6.51620183
Ba       6.45301630       6.45301630       2.07759942
Ba       2.15100543       2.15100543       6.51620183
Ba       6.45301630       2.15100543       6.51620183
Ba       2.15100543       6.45301630       2.07759942
Ba       2.15100543       6.45301630       6.51620183
Ba       6.45301630       2.15100543       2.07759942
V       -0.00000000       4.30201087      -0.00000000
V        4.30201087      -0.00000000      -0.00000000
Ta       4.30201087       4.30201087       4.29690063
Ta       0.00000000      -0.00000000       4.29690063
Bi      -0.00000000       0.00000000       0.00000000
Bi       4.30201087       4.30201087      -0.00000000
Bi       4.30201087      -0.00000000       4.29690063
Bi       0.00000000       4.30201087       4.29690063
O        2.30993468       4.30201087       4.29690063
O        6.29408705       4.30201087       4.29690063
O        4.30201087       2.30993468       4.29690063
O        4.30201087       6.29408705       4.29690063
O        4.30201087       4.30201087       2.30249025
O        4.30201087       4.30201087       6.29131100
O        6.61194555      -0.00000000       4.29690063
O        1.99207618      -0.00000000       4.29690063
O        0.00000000       6.61194555       4.29690063
O        0.00000000       1.99207618       4.29690063
O        0.00000000      -0.00000000       2.30249025
O        0.00000000      -0.00000000       6.29131100
O        6.64836902       4.30201087       0.00000000
O        1.95565271       4.30201087       0.00000000
O        0.00000000       2.34635816       0.00000000
O        0.00000000       6.25766358       0.00000000
O        0.00000000       4.30201087       6.66630994
O        0.00000000       4.30201087       1.92749131
O        2.34635816       0.00000000       0.00000000
O        6.25766358       0.00000000       0.00000000
O        4.30201087       6.64836902       0.00000000
O        4.30201087       1.95565271       0.00000000
O        4.30201087      -0.00000000       6.66630994
O        4.30201087      -0.00000000       1.92749131
40
Lattice="8.604021732420122 -5.149003211088349e-18 1.971005969472598e-17 1.2281924980607865e-17 8.604021732418943 -1.6784431937988192e-13 2.2444507175158703e-16 -3.8958830886067843e-13 8.593801251918908" Properties=species:S:1:pos:R:3:momenta:R:3 group=ta0.5_md x=0.5 dopant=Ta pbc="T T T"
Ba       2.23225007       2.00515114       2.08574304      -3.56873083       1.21696833      -1.66494018
Ba       6.40860179       6.19810259       6.39809109      -0.77650225       1.31328290       0.46342639
Ba       6.31691936       6.29990409       2.10800540       0.89361275      -1.77467214       2.25177411
Ba       1.99296318       1.96141962       6.45082617      -0.74553524      -2.15034873      -1.00052659
Ba       6.60301889       1.86318026       6.49745552      -1.71176477      -1.76976092      -1.29913401
Ba       1.95091965       6.09535853       2.14508748      -1.93210669      -2.73109405      -0.94296697
Ba       1.90594053       6.22612421       6.61561259      -0.28495811       0.75892441      -0.84797639
Ba       6.26156927       2.00521772       2.03975901       0.07535597      -3.80605599      -2.66430032
V       -0.08928308       4.10056349       0.03272824       1.78143381       0.09250647       0.04880978
V        4.26864886      -0.07875930       0.00756271      -0.52891752       0.52397354      -0.32582089
Ta       4.10593689       4.13428178       4.33066480      -1.83101232      -2.33648497      -1.60178289
Ta      -0.11309806      -0.29875557       4.28250704       1.03055701      -2.16476311      -0.59162831
Bi      -0.05934199      -0.23613857       0.07283220       1.20727158       1.22198911       2.94137582
Bi       4.22909434       4.27825610      -0.03520104       0.21251783       1.09281656      -2.03308166
Bi       4.05265639      -0.23842780       4.38168621      -2.23599884      -1.25848448       1.82936760
Bi      -0.20484981       4.03491785       4.23259129      -0.52052370      -1.29164708       1.91289082
O        2.23465431       3.87837133       4.23199673      -0.49528708       0.43063078      -0.27908357
O        6.18995394       4.52232332       4.23943620      -0.60422020       0.75867550       0.39723291
O        4.54602222       2.30685166       4.65163452      -0.68185982      -0.20771647       0.52298597
O        4.00537675       6.11875378       4.17752925       0.61211303      -0.67457389      -0.33607054
O        4.26531674       3.97058874       2.29587016      -0.24196695       0.12513042       0.04640292
O        4.16585717       4.46048685       6.24659654       0.79459035       0.29109053       0.09040272
O        6.58975129      -0.61793313       4.41672234      -0.45487897       0.70474217       0.59427736
O        2.02495955       0.23981334       4.28470583      -0.42115565       0.73509196      -0.25246609
O        0.39517783       6.37380734       4.36212716      -0.39282488       0.25767889       0.36605186
O       -0.34573153       1.75565826       4.12682296       1.41481335      -0.07453075       0.41276166
O       -0.00259247      -0.45930503       2.29391713       1.25745332       0.20185700       0.03376026
O        0.01823803       0.03747895       6.29200468      -0.64820769       0.12955469       0.07773330
O        6.49867041       4.02274507      -0.08095633      -0.70641476      -0.15164326       0.15085422
O        1.73072412       4.44820124       0.25492399       0.06509450      -0.94881245      -0.77330030
O        0.15788656       2.36614857       0.34284035       1.08749812       0.07695936      -0.22515295
O       -0.46097102       6.23605498      -0.10484332      -0.03365289       0.11265610       0.33424644
O       -0.04804498       4.05468613       6.78389243      -0.18685552       0.53721954       0.40874987
O       -0.26592308       4.41078562       2.03535159       0.83481907       0.69175281      -0.07085720
O        2.08543812      -0.45064103       0.06866007       0.46958792       0.14532134       0.22217782
O        5.99295168      -0.05773562      -0.19785570      -0.02948157      -1.82725342       0.43004770
O        4.36159979       6.39109259       0.31435512      -0.34439742      -0.34208727       0.90086919
O        3.99810119       1.72790292      -0.24996240       0.53042532      -0.09142843       0.41924395
O        3.98447864      -0.41690651       6.57080696       0.52701850       0.12766613       0.46038161
O        4.43913319       0.15760849       1.90490812      -0.21598283       0.38516044       0.03168600
40
Lattice="8.604021732420122 -5.149003211088349e-18 1.971005969472598e-17 1.2281924980607865e-17 8.604021732418943 -1.6784431937988192e-13 2.2444507175158703e-16 -3.8958830886067843e-13 8.593801251918908" Properties=species:S:1:pos:R:3:momenta:R:3 group=ta0.5_md x=0.5 dopant=Ta pbc="T T T"
Ba       2.14637169       2.01732346       2.03615084      -2.90511826      -0.42557237      -1.55597918
Ba       6.36685327       6.25274189       6.43982154      -1.96088784       2.64700865       2.09129466
Ba       6.34001761       6.24882996       2.16538943      -0.14142654      -1.31589162       1.52923887
Ba       1.99923001       1.89094021       6.41566404       0.67452153      -2.19057951      -1.16336136
Ba       6.49759848       1.82902140       6.46819697      -4.29441626      -0.96281390      -0.94323113
Ba       1.91619631       6.05550449       2.12002802      -0.00422179      -0.44603425      -0.84727862
Ba       1.92404254       6.25697087       6.60597966       1.13712851       2.16007544       0.19753324
Ba       6.25473600       1.92426144       2.00701866      -0.89636383      -2.35188248      -0.59320854
V        0.00397464       4.12964402      -0.00467519       0.61093914       0.13114235      -1.53563892
V        4.20410466      -0.11214000       0.00343595      -0.44943478      -1.93847881       0.46133427
Ta       4.11881896       4.08902447       4.28835255       1.71870991      -1.75759054      -1.05210226
Ta      -0.08856007      -0.29901577       4.28399507       1.72954868       2.68884260       0.86021273
Bi      -0.03119845      -0.22857567       0.14088570       1.90399408      -0.40539555       3.29176867
Bi       4.27299313       4.29634142      -0.07931279       2.41411541       0.63856114      -1.66946575
Bi       4.04961192      -0.25746589       4.42164411       1.04886941      -0.70562484       2.34604198
Bi      -0.21292083       4.01470240       4.24285441       0.16513758      -0.85000785       0.41309475
O        2.20571894       3.95707943       4.22709894       0.56180556       0.03508295       0.77891719
O        6.15871796       4.45412627       4.36965231      -0.69391230      -1.16761411       0.26606889
O        4.35942580       2.18219801       4.66197844      -0.44879701       0.58685316      -0.14015205
O        3.88322369       6.14559563       3.97984784      -1.19026134      -0.49899389      -0.99973894
O        4.17264900       3.79931284       2.44701144       0.13909870      -1.08818716      -0.45547182
O        4.11826597       4.54420232       6.29018189      -0.41603374       0.12430064      -0.46704251
O        6.53215508      -0.35694683       4.33798533      -0.80028398       0.86339779      -1.16121130
O        1.87528736       0.23904443       4.25389718       0.31113542      -0.67902200       0.29678560
O        0.24086997       6.40897513       4.58736638      -0.71005881      -0.15548800       0.49555655
O       -0.36713859       1.86583284       4.13528239      -1.38775853       0.38636427      -0.16587901
O       -0.02755875      -0.41933031       2.31222485      -1.24551084      -0.39601824       0.00850465
O        0.03267937      -0.04720609       6.31768860       0.68302109      -0.31502448       0.39010938
O        6.40818272       3.83144572       0.04356377       0.63248152      -0.70074158       1.00646089
O        1.82790882       4.35112626      -0.05892763       0.11013038      -0.32102796      -0.64363455
O        0.08712729       2.27483056       0.21087350      -1.03481488      -0.15700542      -0.41394765
O       -0.23380752       6.19343478      -0.09842230       1.28439438      -0.82833509       0.32838721
O       -0.17436382       4.13206991       6.79551195      -0.85136187      -0.11924989      -0.05710255
O       -0.20871339       4.40475203       2.10137697      -0.13955935      -0.69097809      -0.70762515
O        2.19434107      -0.39851381       0.12198472       0.04943831       0.07342348      -0.09429441
O        6.10391538      -0.24785553      -0.11246630       0.00639610       0.65973204       0.47317412
O        4.18156792       6.33551132       0.39737059      -0.55029268      -0.30482469       0.26758183
O        3.99404498       1.68099999      -0.18204879      -0.07233081       0.30317858      -0.66520198
O        4.06246649      -0.46272203       6.68952700      -0.20432271      -0.42218231       0.08305378
O        4.17732846       0.10152868       1.87206763      -1.06894300      -0.89118820       0.15173684
40
Lattice="8.604021732420122 -5.149003211088349e-18 1.971005969472598e-17 1.2281924980607865e-17 8.604021732418943 -1.6784431937988192e-13 2.2444507175158703e-16 -3.8958830886067843e-13 8.593801251918908" Properties=species:S:1:pos:R:3:momenta:R:3 group=ta0.5_md x=0.5 dopant=Ta pbc="T T T"
Ba       2.07641205       1.97287165       2.00747322      -2.20376590      -0.85436522      -0.64627599
Ba       6.36020543       6.34937891       6.48754617       0.25748145       3.31390898       0.93507047
Ba       6.31129819       6.21543940       2.16767413      -1.23956962      -1.48910121      -1.09304915
Ba       2.02753242       1.85128261       6.42126304       0.41998127      -0.22189422       1.30320599
Ba       6.36656826       1.82433638       6.47147523      -4.42795697      -0.33677414       0.54217867
Ba       1.92502000       6.06394993       2.11697841       1.06624889       0.76245764      -0.92231450
Ba       1.95677719       6.29598484       6.59280558       1.35533930       0.67384463      -1.47685322
Ba       6.24940968       1.84255920       1.98290549       0.31877238      -3.26167064      -0.35524086
V       -0.04990834       4.08349070      -0.11739790      -2.03610004      -1.37446731      -0.71575657
V        4.16171498      -0.17802464       0.12597015       0.00086460       0.39715713       1.40918790
Ta       4.17607657       4.06429612       4.29495246       2.43455414       0.26171130       1.36609205
Ta      -0.06740914      -0.20959859       4.31994140      -1.74810763       5.85519376       3.19507211
Bi       0.00233108      -0.24821590       0.16700710      -0.36773595      -1.66547527       0.25707976
Bi       4.32066877       4.26627392      -0.09788747       3.01231597      -4.09965299      -0.23336983
Bi       4.07049101      -0.26784540       4.44376641       2.45004104      -0.62399468       0.48313137
Bi      -0.21825126       4.00927485       4.23175009      -0.05073301      -0.42756949      -1.97666047
O        2.08872742       3.78233725       4.39333721       0.40238432      -0.98453787      -0.08086576
O        6.04793693       4.33864406       4.33429471      -0.16305741       0.22345575      -0.53829400
O        4.27355443       2.12965333       4.72973552      -0.55532504      -0.36747924       0.32393396
O        3.84432676       6.06322003       3.90838020       0.78052554      -1.14879761       0.27046683
O        4.20544960       3.65335899       2.24685836      -0.73762220       0.41772341       0.91170390
O        4.08117243       4.60738627       6.20441301      -0.04318277       0.19274925      -0.43401915
O        6.43518156      -0.39573193       4.31407308      -1.08301827      -1.01166132       1.09989641
O        1.82840854       0.11366942       4.20677582       0.20650870      -0.26481756      -0.81064312
O       -0.05968194       6.42507579       4.52606255      -1.19215586      -0.97692632      -0.43055422
O       -0.56169628       1.76403586       4.16940173       0.05172403      -0.21530083       0.02240819
O       -0.26984165      -0.54017146       2.32344945      -0.05152270       0.05605656      -0.80350924
O       -0.05718393      -0.00949649       6.30236273      -1.24256641       0.17516175       0.42698859
O        6.44017497       4.02119290       0.13379344      -0.85583269       1.75390302      -0.46934263
O        1.77410696       4.12910008      -0.00138126       0.16881148      -0.99864853       0.51096052
O       -0.00549863       2.22810592       0.14340758      -0.15736646      -0.74111195      -0.00150983
O       -0.14713110       6.06643599      -0.00909163      -0.46056596       0.10252466       0.03520781
O       -0.35516880       3.99467184       6.70762528      -0.20940003      -0.50318431      -0.24628063
O       -0.16544108       4.21932203       2.06351703       0.61210482      -0.60949070       0.75938825
O        2.06468351      -0.37731567       0.05835493       0.04868753       0.18859484       0.00545507
O        5.95433062      -0.08261278       0.02195869      -0.40573911      -0.03076491       0.17733531
O        4.29917003       6.42038961       0.32567684       0.73258628       0.18157449      -1.10662386
O        3.99650359       1.54998031      -0.39496467      -0.39334368      -0.93668095      -0.58315082
O        4.01605567      -0.64910953       6.56842398      -0.01879845      -1.47141064      -1.02692234
O        4.02350950      -0.04096173       1.85822529      -0.48571413       0.08724015       0.29113250
40
Lattice="8.604021732420122 -5.149003211088349e-18 1.971005969472598e-17 1.2281924980607865e-17 8.604021732418943 -1.6784431937988192e-13 2.2444507175158703e-16 -3.8958830886067843e-13 8.593801251918908" Properties=species:S:1:pos:R:3:momenta:R:3 group=ta0.5_md x=0.5 dopant=Ta pbc="T T T"
Ba       1.99511054       2.06966288       2.34761618      -2.62106900      -0.05512360      -1.44407640
Ba       6.50065337       6.32950873       6.58542959      -3.09023255       1.65066957       1.02709237
Ba       6.37943431       6.61180291       2.20097448       1.51086893       0.09806513       1.26854335
Ba       2.12797481       1.96821512       6.71270686       1.69022955      -1.19322908       3.36906421
Ba       6.52133200       2.15111974       6.72110459       3.83158163      -1.57285202       2.04430947
Ba       2.13838616       6.44816408       2.21187454      -1.08771759       1.28693886       1.90225857
Ba       2.02169876       6.31855242       6.67427857      -0.76822607      -0.38039840       0.94920657
Ba       6.43445337       2.09149872       2.12907981      -1.22973371      -1.99694759      -0.40890819
V        0.02682335       4.18086674       0.16383047      -2.08167218       0.41328904       3.65993394
V        4.36982100      -0.08635454       0.03292449       0.93771941       0.96374052       0.36035986
Ta       4.40935083       4.23735868       4.56629730       1.52388243       0.73364395      -1.43401292
Ta       0.06841381       0.04849549       4.38879065      -4.99514179      -0.64976927      -2.60095206
Bi       0.03771481      -0.16286281       0.02935217      -1.42751514       0.78925519      -1.68697565
Bi       4.14856036       4.42505539       0.08830071       2.91446941       1.23533514      -1.15049187
Bi       4.27586106       0.05788524       4.38202815       1.55277727       0.37366698       1.28043515
Bi       0.03383101       4.28065188       4.41383972      -0.59756605      -1.33296601      -5.20796849
O        2.51696795       4.31456140       4.88706906       0.78713763       0.02756927      -0.80490561
O        6.44699283       3.98050481       4.63342333      -0.24103027      -1.37288318       0.42398330
O        4.25650376       2.15563190       4.74145601       0.68927854       1.38505775      -0.09770581
O        4.70909292       6.26236236       4.41570801       0.02487524      -0.02317246       0.90255744
O        4.19444164       3.78799325       2.55756099       0.35485611      -0.23267039       0.22231357
O        4.58714360       4.23576375       6.66053275       1.48230477      -0.39737662      -0.82676754
O        6.84237914       0.07799096       4.40804194       1.25134860       0.00651783       0.60184294
O        2.02324394      -0.45236687       4.14400061      -1.10269748       2.02150707       1.53358935
O       -0.14448924       6.44819412       4.25826147      -0.74342422       0.29436630       2.22094690
O        0.34997046       1.98510550       4.40514812       0.37645468       0.03171696       0.45767778
O        0.07467699       0.16277895       2.42101975       0.89292154       1.18151554       1.84825457
O        0.26439810      -0.15780501       6.29462626      -1.12467324      -0.59265477       0.03820657
O        6.45537096       4.14168585       0.38308906      -1.06046548      -1.25037554      -2.01914988
O        1.78979621       4.02235221      -0.06358471      -0.78757548       1.12205432      -0.81762271
O       -0.14825680       2.36971092       0.27336905       0.55799342      -0.38224955       0.33485163
O       -0.06787499       6.08507611       0.28710763       0.93273453      -0.83824101      -0.56296802
O        0.15261201       4.34549828       6.67611976       1.09588462      -0.42587352      -0.16949825
O        0.37329428       4.24486333       2.26953243      -0.21035504      -0.99411831      -0.19269163
O        2.33230071      -0.21842520      -0.00056596       0.57692645      -1.39347420       0.03488580
O        6.36261697      -0.55386625      -0.11262915       0.73526643      -1.86155328      -0.66211416
O        4.38421528       6.40971407       0.34832714      -0.74843621       1.34579252       1.24148484
O        4.46798063       1.62054235      -0.30477017      -0.08199863       0.66282577      -0.12341611
O        4.18609771      -0.33370040       6.74293702       0.76229887      -1.18644481       1.50543092
O        4.54700914       0.17977183       2.22025451      -0.32706174      -0.28202896       0.76928687
40
Lattice="8.604021732420122 -5.149003211088349e-18 1.971005969472598e-17 1.2281924980607865e-17 8.604021732418943 -1.6784431937988192e-13 2.2444507175158703e-16 -3.8958830886067843e-13 8.593801251918908" Properties=species:S:1:pos:R:3:momenta:R:3 group=ta0.5_md x=0.5 dopant=Ta pbc="T T T"
Ba       2.00196647       2.07028843       2.31403708       2.77746410      -1.18301386      -1.80306458
Ba       6.42395027       6.35620388       6.58678775      -1.34694174       0.09405307      -0.43412715
Ba       6.43461618       6.59347968       2.25535278       0.85006930      -0.72773600       3.31601054
Ba       2.17534827       1.96520260       6.77956647       0.64781758       1.10929816       1.48938231
Ba       6.62967537       2.13018406       6.73051975       3.23718272       0.32245247      -1.68785743
Ba       2.07964605       6.49318367       2.27324129      -1.58738475       0.32755824       1.43417073
Ba       2.03253866       6.31089835       6.65424574       1.01412789      -0.33818030      -0.66934553
Ba       6.37898685       2.05375464       2.14196691      -2.74472909      -0.25485272       0.11451454
V       -0.05905253       4.24533824       0.29996887      -0.55314863       1.25574638      -2.92815564
V        4.35046577      -0.14348838      -0.04069823      -0.77504987      -0.98605780       0.66898344
Ta       4.41094063       4.20795106       4.51912662      -1.07852543      -2.53541883      -2.78798583
Ta       0.01692071       0.02026056       4.37082427      -2.17223746      -2.23396940       2.10131647
Bi       0.00539778      -0.14040967       0.00192432      -1.92575671       2.33223369       0.53524256
Bi       4.22074047       4.38890118       0.09240078       4.70363445      -2.77638018       1.00396037
Bi       4.34018539       0.08170819       4.41626368       5.34074505      -0.71681716       0.62519416
Bi       0.00843081       4.27201280       4.37860312      -1.48109571       1.01942589       3.30678056
O        2.36062174       4.51606745       4.65426666      -0.04244978       0.46349853      -1.38291151
O        6.50804177       3.72529609       4.29860301      -0.61418780      -0.70786137      -2.42934000
O        4.19021990       2.08197985       4.94573346      -1.33260222      -0.27869520       1.05267745
O        4.69427251       6.11391226       4.36934605      -0.06192928      -0.29568712      -0.59757563
O        4.34546309       4.07477305       2.52477976       0.38941908       1.26760112      -1.34078033
O        4.71732694       4.37874126       6.52448257      -1.26847553       1.55185947       0.11594001
O        6.61145130       0.24389979       4.49832570       1.67527285       1.41027971      -0.21907322
O        2.07806441      -0.16485293       4.60788600      -1.20800841       0.15172974       1.12237088
O       -0.18876963       6.74316857       4.49164954       0.58608565       0.24121748      -0.09601284
O        0.44237721       1.88562755       4.70922014      -0.10321785       0.93614424       0.83967518
O        0.04211101       0.01158738       2.45836464      -0.52136930      -1.16017438       1.05782577
O        0.04536402      -0.14339348       6.52775201      -0.86030315       0.24584910      -1.23832223
O        6.61428617       4.14568899       0.05097055       2.85546877       1.10879934       0.63986977
O        2.00247012       4.16221550      -0.09323177       1.98688395      -0.10850417       0.40134512
O       -0.12484992       2.07242034       0.10964890       0.47949519      -1.70231341      -0.96629846
O        0.06141953       6.06441698       0.27289730      -0.14541077       0.57339159       0.68416424
O       -0.11757185       4.16073035       6.71033462      -2.66529861      -0.64249524      -0.43694031
O        0.10639551       3.97952194       2.00429326      -1.52026057      -1.07488106       0.72448855
O        2.33754050      -0.27359575       0.29575162      -0.37401944       1.33236707       0.67767306
O        6.38845370      -0.31183730       0.15804535      -1.17802882       2.52526250       2.04123958
O        4.16542078       6.57372357       0.66919920       0.14773127      -2.35425863       0.51546486
O        4.38687019       1.69589339       0.11236734      -0.66781404      -1.05389009       0.86505283
O        4.42765752      -0.65881561       6.86993766       0.02126550      -0.21509870      -0.36893231
O        4.42412872       0.12196364       2.14765615      -0.34093049       0.49755869       1.25123483
40
Lattice="8.604021732420122 -5.149003211088349e-18 1.971005969472598e-17 1.2281924980607865e-17 8.604021732418943 -1.6784431937988192e-13 2.2444507175158703e-16 -3.8958830886067843e-13 8.593801251918908" Properties=species:S:1:pos:R:3:momenta:R:3 group=ta0.5_md x=0.5 dopant=Ta pbc="T T T"
Ba       2.08775433       2.03462082       2.22117203       1.76695792      -0.39450468      -4.04915942
Ba       6.42059948       6.39416650       6.53366144      -0.30675934       1.78758967      -2.61368985
Ba       6.48112127       6.56311809       2.32832029       1.86288253      -1.53162873       1.82498945
Ba       2.17058590       2.01020142       6.84953894      -0.22919985       0.74231308       2.43092101
Ba       6.72278712       2.15581020       6.65162966       1.34983174       1.98940419      -4.39013462
Ba       2.04329359       6.50607647       2.31156215      -0.37803620       0.89061622       2.10157340
Ba       2.06895722       6.33445594       6.65712785       1.67086661       1.07998860       0.73255734
Ba       6.31468305       2.03638134       2.13307287      -1.41365907       1.30659325      -1.37672344
V       -0.00486045       4.24901382       0.08952185       1.57744087      -1.31807016      -0.10651106
V        4.28186615      -0.17120283       0.17031828      -1.51394782       0.57067200       3.10225735
Ta       4.35367821       4.15894292       4.41131352      -4.78348469      -0.05656213      -6.51199356
Ta       0.00938987      -0.02640446       4.48759317       1.29514553      -1.87123771       6.94836458
Bi       0.01965765      -0.07569846       0.02873482       3.87296652       3.98945211       3.59993469
Bi       4.30764477       4.27696653       0.14711504       6.04393805      -7.43475141       2.96073123
Bi       4.41490071       0.05345230       4.45040862       1.90733033      -1.07985089       5.12253267
Bi      -0.03499951       4.24323844       4.46977144      -3.01377612      -4.32656020       4.95140193
O        2.36733164       4.59217350       4.24431531      -1.92178317       1.03789465      -1.26898355
O        6.25057638       3.79674109       4.13826941       0.64475787       0.75357070       1.08971417
O        3.94060572       2.35394040       4.99020975       0.35959135       0.40267476      -1.48180696
O        4.85594132       6.28979346       4.26606008       0.78792987       1.99539746      -0.28618804
O        4.20404083       3.85411522       2.34656917      -1.32827150      -2.64981333      -0.94178267
O        4.34815094       4.69748599       6.40910212      -1.09538912       0.80901632       0.16204710
O        6.64570120       0.57305864       4.43576145      -0.95744432       0.05454040      -0.24768219
O        1.94835664      -0.22716575       4.52610080      -0.11929538      -0.73512694      -1.53290528
O       -0.22516426       6.60951566       4.40714257      -0.64062835       2.07153728      -0.25705014
O        0.35683984       2.02821723       4.50373919      -0.18791499      -2.86743408      -1.24009989
O       -0.04994707      -0.11968313       2.45894217      -0.27898066       0.22666003       0.53116918
O       -0.18081085      -0.13362572       6.44123085      -0.91268101      -0.57723762      -0.46086429
O        6.65764061       4.36058605       0.29734171      -2.10686069      -0.15132620       0.46452380
O        2.05174528       4.06401757      -0.02551488      -1.91126350      -0.07361310      -0.17972404
O        0.10676831       2.13424287      -0.04139118       0.49482108       1.69649545      -0.00478396
O        0.24497091       6.02291127       0.32833762       2.01289598      -0.54995408      -0.49457816
O       -0.34355001       4.28575262       6.74365772       0.94077032       1.35850996       1.30884643
O        0.00771943       3.83981916       2.00836503       0.89637423       0.19923214      -1.13601538
O        2.28471092      -0.02045594       0.32053742      -0.96009473      -0.81509302       0.31967699
O        6.05242610      -0.13018092       0.41636000      -0.06757545      -1.81251329       0.44261057
O        4.24142224       6.44948481       0.55215961      -0.23729777       2.00186564      -0.59196103
O        4.21461991       1.64022174      -0.03615276      -0.00882229       1.62482369      -0.99590329
O        4.11119311      -0.53234549       7.08472389      -1.39945326      -0.35809155       0.55822733
O        4.20408030       0.15034894       2.39857365      -1.57923753      -0.37046153      -1.82964937
40
Lattice="8.604021732420122 -5.149003211088349e-18 1.971005969472598e-17 1.2281924980607865e-17 8.604021732418943 -1.6784431937988192e-13 2.2444507175158703e-16 -3.8958830886067843e-13 8.593801251918908" Properties=species:S:1:pos:R:3:momenta:R:3 group=ta0.5_test x=0.5 dopant=Ta pbc="T T T"
Ba       2.15776823       2.22564381       2.08421102      -1.20479709      -5.61239919      -2.29617601
Ba       6.56675726       6.70650295       6.68128974       0.42417147       0.34054893       4.52874171
Ba       6.50234212       6.48391965       2.20407386      -0.26680090      -4.53946726       0.48193915
Ba       1.91819612       2.18375927       6.59674460       1.42555086       4.04855450      -0.40868809
Ba       6.35722285       2.04167438       6.59409110      -0.44681736       1.25508600       0.25448830
Ba       2.05431033       6.17983684       2.35182274       0.41636577      -0.65609958       3.06769116
Ba       2.13427636       6.43208458       6.54640638       2.15493142      -3.39165314       0.20189831
Ba       6.52741580       2.06575235       2.21831323       0.12485845       2.03983192      -1.78986725
V       -0.16733239       4.27677321      -0.08754519      -0.43121589      -0.57638476       0.82321258
V        4.25245812      -0.05105869       0.09078381      -2.12633500       1.45232324      -1.32235397
Ta       4.39682730       4.39838823       4.33258706      -1.79193939       3.64772783      -2.48967620
Ta      -0.03430193       0.00921152       4.41000287       0.39197951      -4.75129569      -1.40799957
Bi      -0.01365961       0.01030348       0.12905588       0.54364962      -3.26605809       0.38789657
Bi       4.35706255       4.44157695       0.09192421       0.65544026       1.75801789       0.18686081
Bi       4.36017520      -0.08012965       4.45035568      -0.33150884       1.45385318       0.23178091
Bi      -0.00770593       4.23959147       4.36950776      -2.96805990       2.82899531      -1.79622103
O        2.40398690       4.34016311       4.53290551       0.31596698       1.05974291      -0.96614168
O        6.35004226       4.43128936       3.90298664       0.78778480      -0.34507303       0.56928333
O        4.27688082       2.28840843       4.63099474      -0.92675781      -0.06427172       0.64471807
O        4.36648636       6.36274741       3.99850650       0.71528414       0.08936799       0.80712786
O        4.05686475       4.17471321       2.27682526      -0.00951800       0.35329609       1.57461320
O        4.51190727       4.79259386       6.21495935      -0.17980778       0.17012134       1.03526380
O        6.58345904       0.14072024       4.85386337       0.15737863       0.12460154      -0.37818387
O        1.97288956       0.06724860       4.31286071       1.19395267       1.20987714       1.15557337
O        0.00884445       6.68133636       4.56576865       0.03124326       0.40072102       1.41475650
O       -0.03829275       1.97218825       4.50352458      -0.48625374       0.51710812       0.28140791
O       -0.44599869      -0.06450316       2.45286999       0.87992084       0.24512316       0.50935902
O        0.27427597      -0.06654460       6.41262809       0.35154140      -0.85300118      -0.12987272
O        6.61582866       4.14897467       0.42459441      -0.92088879       2.48507472      -0.54786812
O        1.67211375       4.45796031       0.05505019      -0.39080147      -0.02859044      -0.77985355
O       -0.11555329       2.27921185       0.16047379      -0.52813152      -0.45643526       1.28302696
O       -0.22939606       6.29721850       0.24154024       0.54243065      -0.89770107      -0.44358329
O       -0.37344165       4.16593839       6.83476920      -0.89824055      -0.18428218      -0.01019626
O        0.16667219       4.14553157       2.26829284      -0.28747446      -0.75358088      -0.48739424
O        2.53776030      -0.38407298       0.38702528       1.22365257      -0.00654077      -0.79505716
O        6.50824752      -0.04109936      -0.18871101       0.90789258       0.71544435       0.73260486
O        4.63368684       6.46768661       0.36584636      -0.85923943       0.88465760      -0.68230214
O        4.00340934       1.78212599      -0.17012093       1.09772224      -0.11571975       0.16184639
O        4.11293760      -0.27214663       6.58198895       0.56830725       0.02511216       0.67928145
O        4.81720486       0.08128891       1.73705193      -0.10045951      -0.72421958       1.73356161
40
Lattice="8.604021732420122 -5.149003211088349e-18 1.971005969472598e-17 1.2281924980607865e-17 8.604021732418943 -1.6784431937988192e-13 2.2444507175158703e-16 -3.8958830886067843e-13 8.593801251918908" Properties=species:S:1:pos:R:3:momenta:R:3 group=ta0.5_test x=0.5 dopant=Ta pbc="T T T"
Ba       2.12783857       2.07992921       2.05118561      -0.93528339      -4.13079586      -1.18825050
Ba       6.57600773       6.65509582       6.77809149      -0.95861746      -3.83385706       2.76026216
Ba       6.49389562       6.37537896       2.18262974      -0.35586189      -2.09342585      -1.58693464
Ba       2.00870174       2.26933526       6.54571637       2.97308112       2.06180336      -2.81336489
Ba       6.34940575       2.08517928       6.61186111       0.49662186       2.93554471       0.08864024
Ba       2.05769555       6.19711127       2.39627151       0.04554312       1.70871164      -0.21181379
Ba       2.19832546       6.36382301       6.55122322       2.50768837      -1.23277000       0.74860268
Ba       6.50783614       2.13132284       2.21237279      -1.23271094       2.50471625       0.56269892
V       -0.08592724       4.29671251       0.04808015       2.83964499      -0.16455169       0.36877921
V        4.21690392       0.02173244       0.14224963      -0.26588592      -0.96360967       1.00425670
Ta       4.33608851       4.40731788       4.34461283      -1.68757374      -2.43519369       4.34498529
Ta       0.03064379      -0.07772722       4.40208101       3.90887902      -1.98366766       1.00381136
Bi       0.01099876      -0.05701452       0.10884185       2.19215239      -3.39303312      -0.94684720
Bi       4.35010364       4.47068230       0.10803815      -1.55649570       1.11576708       1.18435297
Bi       4.34721035      -0.03566002       4.44811107      -2.12517639       3.71864722       0.23467602
Bi      -0.07968919       4.29376571       4.33542570      -4.15127656       1.28430844      -1.99317974
O        2.30160243       4.63459946       4.49610369      -0.50275384       1.20747091       0.85139255
O        6.25550583       4.21784764       4.20636086      -0.69649253      -0.63889938       0.38061562
O        4.26843502       2.53903456       4.71976746      -0.00056178      -0.29166423       0.41438787
O        4.42719156       6.44221540       4.11467308       0.05011282       1.24288124       0.28058526
O        3.99941887       4.18291939       2.36401355      -0.00937692      -0.22215479       0.06077744
O        4.45824506       4.70392147       6.41419454      -0.47221057      -0.56863437      -0.69410698
O        6.65728122       0.04784659       4.65554023      -0.93932438      -0.82140955      -0.85819031
O        1.92768698       0.18263786       4.26381256      -0.03513260       0.06026769      -0.99687117
O       -0.00258195       6.62572531       4.55045346      -0.12234608      -0.18520805      -1.18695615
O       -0.13763359       2.03180738       4.53620795      -0.10166967      -0.84010439       0.00182588
O       -0.02811063      -0.02772711       2.50437062       1.41750910      -0.06418445      -0.14357468
O        0.30722095      -0.02605956       6.62153715      -0.37476832       0.99667965      -0.42995839
O        6.42642905       4.49497640       0.34214054       0.50496588      -0.12738620       0.47120109
O        1.73247486       4.26725664      -0.24109385       0.38485670      -1.37156265      -1.33806323
O       -0.04428608       2.29130482       0.23802551       0.74744075       0.47257956      -0.35891204
O       -0.10169349       6.07189209       0.09830822       0.45234754       0.62621623       0.11356109
O       -0.50455315       4.17518548       6.84845726       0.44402688      -0.31489215       1.12905993
O        0.16679845       4.19700072       2.13262169      -0.35474394       1.00879715      -0.18760113
O        2.36481653      -0.31146210       0.30710559      -0.68796996       1.59960748       0.56462799
O        6.41561461       0.26129556      -0.08927483      -0.96330860       0.44238426       1.09281763
O        4.51557959       6.64927003       0.16455070       0.05008620       0.06275135       0.40451528
O        4.22237239       1.84644599      -0.05830381       0.35303948       0.94512068       0.63054422
O        4.28085435      -0.29312387       6.86385858       0.46144264       0.41221703       0.47695892
O        4.52458894       0.19229041       2.14996173      -1.52640259       1.16183268       1.32157593
40
Lattice="8.646899232814828 -3.0951167602343822e-18 -3.729457662991314e-19 -8.299181672333369e-17 8.6468992328142 -2.56378216133722e-13 2.2949782747845602e-17 -1.9398790847725783e-13 8.646899232815079" Properties=species:S:1:pos:R:3 group=ta0.75_min x=0.75 dopant=Ta pbc="T T T"
Ba       2.20263329       2.12081633       2.12081633
Ba       6.44426594       6.52608291       6.52608291
Ba       6.44426594       6.52608291       2.12081633
Ba       2.20263329       2.12081633       6.52608291
Ba       6.44426594       2.12081633       6.52608291
Ba       2.20263329       6.52608291       2.12081633
Ba       2.20263329       6.52608291       6.52608291
Ba       6.44426594       2.12081633       2.12081633
V        4.32344962      -0.00000000      -0.00000000
Ta       4.32344962       4.32344962       4.32344962
Ta       0.00000000      -0.00000000       4.32344962
Ta       0.00000000       4.32344962      -0.00000000
Bi      -0.00000000       0.00000000       0.00000000
Bi       4.32344962       4.32344962      -0.00000000
Bi       4.32344962      -0.00000000       4.32344962
Bi       0.00000000       4.32344962       4.32344962
O        2.33035129       4.32344962       4.32344962
O        6.31654795       4.32344962       4.32344962
O        4.32344962       2.32418401       4.32344962
O        4.32344962       6.32271523       4.32344962
O        4.32344962       4.32344962       2.32418401
O        4.32344962       4.32344962       6.32271523
O        6.64763362      -0.00000000       4.32344962
O        1.99926561      -0.00000000       4.32344962
O        0.00000000       6.65380090       4.32344962
O        0.00000000       1.99309833       4.32344962
O        0.00000000      -0.00000000       2.32418401
O        0.00000000      -0.00000000       6.32271523
O        6.64763362       4.32344962      -0.00000000
O        1.99926561       4.32344962      -0.00000000
O        0.00000000       2.32418401      -0.00000000
O        0.00000000       6.32271523      -0.00000000
O        0.00000000       4.32344962       6.65380090
O        0.00000000       4.32344962       1.99309833
O        2.36030781       0.00000000       0.00000000
O        6.28659142       0.00000000       0.00000000
O        4.32344962       6.68375743      -0.00000000
O        4.32344962       1.96314180      -0.00000000
O        4.32344962      -0.00000000       6.68375743
O        4.32344962      -0.00000000       1.96314180
40
Lattice="8.646899232814828 -3.0951167602343822e-18 -3.729457662991314e-19 -8.299181672333369e-17 8.6468992328142 -2.56378216133722e-13 2.2949782747845602e-17 -1.9398790847725783e-13 8.646899232815079" Properties=species:S:1:pos:R:3:momenta:R:3 group=ta0.75_md x=0.75 dopant=Ta pbc="T T T"
Ba       2.44929234       2.34828792       2.21709466      -1.43253446       0.75987977      -0.05639774
Ba       6.61372774       6.25654816       6.46565597       1.10831430       0.94552056      -1.91985159
Ba       6.59561394       6.50752987       2.18569509      -0.26144520      -0.45151345       2.22420407
Ba       2.32729165       1.89217475       6.43436863       0.93253613       1.35592566      -0.35006612
Ba       6.48796115       2.05314501       6.40203894       0.58936247       2.21511819       1.28992493
Ba       2.11294832       6.63428538       2.08403593       0.22386774      -3.85276945       2.20738899
Ba       2.20054186       6.49859171       6.39317436       0.47227614       0.28938667      -2.26521068
Ba       6.41939950       2.25029677       2.22751013      -1.30565203      -2.79549839       1.80863755
V        4.37032599      -0.22558126       0.03541956       0.30624700       0.54897936       0.95895752
Ta       4.44943659       4.29233336       4.30261927      -1.99668903      -0.91952454       0.88516738
Ta       0.04314554      -0.01497657       4.31596991      -1.66078685      -4.26452073      -1.84713957
Ta       0.00517069       4.24893429       0.10153145      -0.10527256      -0.38808444       3.07637283
Bi       0.03629693       0.01550330       0.05781321      -1.09879964       2.61459464      -3.14615761
Bi       4.30953197       4.17031185      -0.05303098      -2.24678608      -0.39085813      -3.95895328
Bi       4.58752707      -0.15352970       4.38713206       3.44741266      -0.51549571       1.95132697
Bi       0.11988950       4.25520985       4.39935556       3.07622254       2.13536405      -0.08998633
O        2.38057077       4.41134036       4.33997462       0.29036735      -1.20885725      -0.01139948
O        6.41901352       4.19510330       4.29625631      -0.04621346       0.02962024       0.42993281
O        4.22378617       2.21762449       4.47802999      -0.13143133       0.25236064       0.79962444
O        4.53961486       6.30988658       4.10142233       0.32443292      -0.47817243       0.50549929
O        4.38185162       4.10594848       2.34363533       0.19564783       1.00511585       0.75989138
O        4.30006195       4.47999881       6.29014205       0.47883067      -0.00717247       0.40832657
O        6.71941177       0.38893342       4.14531032       0.13273848       0.57487744      -0.81809786
O        1.99027888      -0.17130236       4.53122864       0.46633655      -0.08651329      -0.35305008
O       -0.30108845       6.69047186       4.39312312      -0.05674883       0.64419615      -0.36677509
O        0.26893283       2.11371311       3.98029488      -0.67204443      -0.33579342      -0.09632672
O        0.14452737      -0.20014791       2.26986763       0.63834500      -0.66178375      -1.02136613
O       -0.11131492       0.33761828       6.15661152       1.08224387       0.51120159      -0.66150439
O        6.67413362       4.60335235      -0.03265272       0.20695060      -0.10073024       1.42103268
O        2.02812644       3.93789159       0.13813137       0.61276193       0.10594029      -1.01539140
O       -0.17595291       2.29380769       0.34764945       0.14732201      -0.58441644       0.07136950
O        0.24242222       6.32641743      -0.26078346      -0.45468932       0.00358129      -0.31982482
O        0.02872725       4.07944115       6.68043756      -0.15666920       0.31784519       0.01034676
O       -0.02328675       4.58264412       2.03323435       0.52237996      -0.31683314       0.42493250
O        2.24865951       0.14923598      -0.14935067       0.36331399      -0.79118572       0.42557664
O        6.18596439      -0.48334542       0.10505915       0.43453976       0.18592946      -1.07397857
O        3.86501728       6.61908465      -0.00165280      -0.06216279       0.11665147       0.64721660
O        4.61803055       1.95549849      -0.09962356       0.33484488       0.82270136      -0.43967393
O        4.50839741      -0.10248816       6.51349024      -0.70174846       0.44699741      -0.09486989
O        4.14322624      -0.09149955       1.80855376       0.33293886      -0.57188612      -0.21774079
40
Lattice="8.646899232814828 -3.0951167602343822e-18 -3.729457662991314e-19 -8.299181672333369e-17 8.6468992328142 -2.56378216133722e-13 2.2949782747845602e-17 -1.9398790847725783e-13 8.646899232815079" Properties=species:S:1:pos:R:3:momenta:R:3 group=ta0.75_md x=0.75 dopant=Ta pbc="T T T"
Ba       2.37019024       2.31866049       2.20854322      -3.39010064      -2.98776053      -0.58939176
Ba       6.65146955       6.30140012       6.46072436       1.07083452       1.17843640       0.79480542
Ba       6.56907384       6.47826978       2.23081164      -1.91289802      -1.16629311       0.08054985
Ba       2.33783639       1.94161472       6.44666517      -0.30324215       1.88174022      -0.03372312
Ba       6.49539656       2.13486842       6.45072001       0.12276449       2.97186021       2.31684954
Ba       2.17722946       6.53203577       2.14844895       3.89830654      -3.43510360       2.05382328
Ba       2.22564029       6.48722777       6.37169326       0.92092842      -1.03897248       1.48844314
Ba       6.41430407       2.17460520       2.24788850       0.93691158      -2.10903024      -0.06938698
V        4.39068766      -0.23677009       0.07764922       0.01884245       0.21344979       0.18723478
Ta       4.39973786       4.25558045       4.33814037      -0.94025895      -1.56530064       1.68257203
Ta       0.03931261      -0.03991096       4.24163603       1.34055642       1.52256351      -3.78104267
Ta       0.01443636       4.25351579       0.12473406       1.24636166       1.91356823      -0.90546112
Bi       0.05781527       0.05203221      -0.01429989       2.66362149       0.98602412      -3.98236530
Bi       4.27831908       4.17489643      -0.12781449      -0.56129657       1.22283630      -3.43231042
Bi       4.58899143      -0.13378786       4.41661374      -3.54292742       1.99652446       1.27089342
Bi       0.16485874       4.26609617       4.38413583       0.59881090      -1.05326356      -1.17136955
O        2.41568913       4.34845890       4.33449133       0.08558102       0.65404959       0.24257453
O        6.43974775       4.08001010       4.44379760       0.06729767      -0.63089845       0.22948088
O        4.32958459       2.28095421       4.49131634       0.14607143      -0.28443769      -0.64725839
O        4.63123821       6.29907437       4.35263189       0.31415307       0.60690685       1.08372742
O        4.47433770       4.20429392       2.33559446       0.10626875      -0.11410861       0.41116121
O        4.51092710       4.45440260       6.36070664       0.58788795      -0.20308529      -0.35350674
O        6.68972803       0.24344372       4.05394839       0.30924690      -1.61900894       0.55153450
O        1.95124974      -0.32458101       4.34620721      -0.82847620      -0.77536910      -0.95526753
O       -0.38871878       6.66898967       4.47579989       0.05075622      -0.60568130       0.83828311
O        0.17619943       1.98021351       3.92288996       0.38987515      -0.65731881      -0.32231875
O        0.18902953      -0.34440986       2.29862473      -0.34584762      -0.32266027       0.90268366
O       -0.02564089       0.34957245       6.21147763      -0.05948178      -0.73131356      -0.21484458
O        6.71960351       4.48263290       0.27423826      -0.27907456      -0.01293119       0.77883360
O        2.03574970       4.01473565      -0.06860599       0.10665501       0.03743113      -0.03295538
O       -0.26654559       2.30317998       0.30798814      -0.05929196      -0.87127875      -0.16734821
O        0.22438892       6.24633532      -0.18425813       0.26888232       0.58486180       0.81745566
O       -0.06168927       4.12592241       6.71853827      -0.61997224      -0.12119532       0.36838101
O        0.22894254       4.56317142       2.12476455       1.69468186       0.15896679       0.32466294
O        2.26385660       0.19241674      -0.16197854      -0.47384991       0.85313761      -0.17549395
O        6.14554597      -0.37820080      -0.11327408      -0.03156438       0.48683869      -0.19121017
O        3.99581560       6.72532015       0.03051800       0.49881201      -0.06350324       0.15901113
O        4.63678517       2.01948747      -0.17327619      -0.64888975      -0.28105440      -0.10503441
O        4.33536172      -0.14022453       6.56420047      -0.61233237      -0.48285286       0.28634046
O        4.33870466       0.04728909       1.93801232       1.16868184       1.23801921       0.42920291
40
Lattice="8.646899232814828 -3.0951167602343822e-18 -3.729457662991314e-19 -8.299181672333369e-17 8.6468992328142 -2.56378216133722e-13 2.2949782747845602e-17 -1.9398790847725783e-13 8.646899232815079" Properties=species:S:1:pos:R:3:momenta:R:3 group=ta0.75_md x=0.75 dopant=Ta pbc="T T T"
Ba       2.28247714       2.19804587       2.16808300      -2.58999866      -5.28365409      -2.22170898
Ba       6.65528528       6.34966044       6.50164662      -0.67993880       2.09482518       2.14143791
Ba       6.54044154       6.45391849       2.22241927      -0.56444593      -0.45056945      -0.92217115
Ba       2.31527561       1.97871010       6.46974494      -1.66729254       1.28505191       1.86689478
Ba       6.50737951       2.18705251       6.53254512       0.82259547       0.35448878       3.29897526
Ba       2.28730073       6.42237567       2.19163377       3.61989809      -3.74912501       1.32515991
Ba       2.24264410       6.46685604       6.45754737       0.84390015      -0.14955583       3.45555229
Ba       6.42961436       2.12496333       2.21419585       0.67763960      -1.59329297      -1.98711309
V        4.41585239      -0.16659430       0.04892417      -0.21391444       0.79890278      -0.73239690
Ta       4.42098761       4.25201796       4.37155932       1.87682724       0.42879477       0.56152827
Ta       0.09034661      -0.02383982       4.19988378       3.84383261       0.07615889      -0.22671837
Ta       0.05071980       4.31263604       0.07951731       3.16707516       2.87824418      -1.94385694
Bi       0.09694248       0.06390718      -0.08089871       2.18980140       0.47778159      -2.22833804
Bi       4.30213335       4.21226354      -0.15996447       1.73683411       1.97022107       0.57747893
Bi       4.48943892      -0.09112035       4.42451136      -6.84436978       1.49148219      -0.16639642
Bi       0.13718736       4.23910475       4.34887793      -2.63118061      -0.58061547      -2.80630587
O        2.41264277       4.53973634       4.54229403      -0.24918327       0.31190934       1.28092797
O        6.44790291       3.96722025       4.32360662      -0.02827526      -0.10842087      -0.52743395
O        4.19452425       2.24254598       4.44806769      -0.98259022      -0.45903753       0.57615179
O        4.67218973       6.23613161       4.32470807       0.36181677      -0.18154931      -0.75979207
O        4.33155726       4.19954201       2.42063824      -1.24600760      -0.02920755      -0.70092759
O        4.48974116       4.37271050       6.39408463      -0.00684834      -0.31829173      -0.12023093
O        6.70906895       0.03286447       4.32980837       0.58708369       0.08943245       1.16068620
O        2.04727309      -0.45364478       4.31473078       0.13784003       0.27644043       0.17587933
O       -0.08470602       6.47211133       4.60471052       1.70687191      -0.67888506       0.03079503
O        0.35156050       1.82899252       3.94764313       0.62127961      -1.43650901       0.60102449
O       -0.01736090      -0.39233830       2.24710896      -1.26503522      -0.15910462       0.17439983
O        0.00991382       0.19072858       6.22126462       0.20709051      -0.38912268      -0.45031814
O        6.76538493       4.53903405       0.32165267       0.19753024       0.42033535      -0.06855477
O        2.06693956       3.94730430      -0.11778855       0.41132101      -0.10763910      -0.74072925
O       -0.20434109       2.30074228       0.35183013       0.09080133       0.06618898       0.57019249
O        0.31335013       6.22487024      -0.10687282       0.61747047       0.06011789      -0.47912605
O       -0.17923864       4.01984232       6.79932222      -0.38941390      -0.51044212      -0.89025473
O        0.49911061       4.45325450       2.12291098       0.06305213      -0.92133990       0.32606159
O        2.26797876       0.31541053      -0.02528095       0.23696588       0.20438227       1.21427119
O        6.17155551      -0.27178254      -0.10812409       0.50045296       0.20199538      -0.26425038
O        3.99838614       6.67584019       0.13878012       0.07646668       0.89830068       0.70895247
O        4.38741742       2.04215514      -0.29594727      -0.47931236       0.03008180      -0.67496560
O        4.21841429      -0.16882319       6.62085964      -0.39649559       0.47373702      -0.38541394
O        4.42882172       0.22581408       1.80087101      -0.65940099      -0.20932205      -0.59386371
40
Lattice="8.646899232814828 -3.0951167602343822e-18 -3.729457662991314e-19 -8.299181672333369e-17 8.6468992328142 -2.56378216133722e-13 2.2949782747845602e-17 -1.9398790847725783e-13 8.646899232815079" Properties=species:S:1:pos:R:3:momenta:R:3 group=ta0.75_md x=0.75 dopant=Ta pbc="T T T"
Ba       2.22442314       1.89954759       2.29044320      -1.22746627       2.20917061      -0.14309056
Ba       6.23583463       6.45915454       6.77320941      -1.47129707      -2.98700486       0.99985611
Ba       6.49968558       6.34123331       2.31475360      -1.42396536      -2.88829556      -0.15011496
Ba       2.02723516       1.81290591       6.78380886      -0.07096491       0.05920949      -0.21629299
Ba       6.61053921       2.04225397       6.66359150       0.95276898       2.69198965      -2.37918695
Ba       2.36526187       6.43668222       2.13705109      -1.35558659      -4.62343590       0.07215599
Ba       2.30291009       6.37974019       6.72637653       0.20701193       1.57141848      -1.16710583
Ba       6.44433919       2.15168819       2.16653096      -0.71498117      -0.38476164       4.12763418
V        4.42570724      -0.12628259       0.27304579       4.32110117       2.54794718      -0.78989623
Ta       4.19898102       4.09191443       4.58865163       2.41498320      -3.27899389       5.21522789
Ta       0.02976151      -0.17655742       4.42027671      -2.63845787       1.54395778       2.10090235
Ta       0.06284549       4.07664173       0.10653259      -3.71709159       0.93972309       5.22043511
Bi      -0.04031515      -0.10618318       0.22050456      -2.81453698      -2.43812243      -3.47960191
Bi       4.28728610       4.06791519       0.23717165       1.36316620       0.08393037      -0.83342824
Bi       4.32882665      -0.16504142       4.51940387      -5.10201363      -3.30532580       1.63794360
Bi       0.02088592       4.14709318       4.56579982       1.36465683      -4.12898125       2.32143695
O        2.25273842       4.46285144       4.48713442       0.06562494       0.77459210       0.76648670
O        6.26568934       3.49059271       4.46340613       0.53940858       1.81796964      -1.91102093
O        3.79584564       1.98708743       4.64248787       0.91742029       2.50439054      -2.07964310
O        4.47654063       5.97694722       4.12526749      -1.10024328       1.13051138      -1.03990905
O        4.32125852       3.79642840       2.46828798      -0.43481443       0.23576820       0.60539773
O        4.37583908       4.72663459       6.41832764       1.77822033      -0.55655375      -0.77048361
O        6.74909953      -0.00046627       4.20570091       1.56580593      -0.62489618       0.50676719
O        1.99254148      -0.84415582       4.46962432       0.75211031       0.23888175       1.83499733
O       -0.27629464       6.51033861       4.58564784       0.42643146       1.62966473       1.91743910
O        0.37987239       1.75986636       4.25394753       1.55510719      -1.88064709       0.84740426
O        0.11296264      -0.27389620       2.42181009      -0.17969517       1.65065386       0.37752797
O       -0.11785298       0.13950335       6.44175658       0.31634930      -0.42830480      -0.04208543
O        6.64626874       4.14725138      -0.17368420      -1.33324612       0.63680848      -1.55808498
O        2.15026684       4.33952003      -0.00479696       2.45108555      -0.54292177       0.64991265
O       -0.17409522       2.03731170       0.13888999      -1.17504893      -0.47219763      -3.14406180
O        0.08871155       6.13616617      -0.13296537      -0.48024757      -2.05370611       1.52980019
O        0.22184059       3.73621560       6.73537846       0.15711069      -0.95655595      -1.69626057
O       -0.11904286       3.94621141       2.04057254       0.04912358       0.42496904      -0.27387605
O        2.26985747       0.08912976      -0.06561463       2.07769040       1.78594303       0.19610798
O        6.40126313       0.05025099       0.08262957       0.66228709      -0.76934272      -0.16021188
O        4.38436814       6.40518798       0.45925670      -0.10266513       0.87208874       1.07929582
O        4.22972297       1.76565240      -0.06351589       0.75651106      -1.05003838       0.27855448
O        4.44155088      -0.57444105       6.79006264       2.75333493      -1.88751788      -0.34885975
O        4.31642612      -0.08885985       2.06455767      -1.99035808      -0.70901650       0.17897620
40
Lattice="8.646899232814828 -3.0951167602343822e-18 -3.729457662991314e-19 -8.299181672333369e-17 8.6468992328142 -2.56378216133722e-13 2.2949782747845602e-17 -1.9398790847725783e-13 8.646899232815079" Properties=species:S:1:pos:R:3:momenta:R:3 group=ta0.75_md x=0.75 dopant=Ta pbc="T T T"
Ba       2.22638765       1.99077571       2.30481144       1.52980054       4.25356232      -0.18278256
Ba       6.32450706       6.32666430       6.75891864       5.20341987      -5.56219371      -1.95078043
Ba       6.44203288       6.27530051       2.33799935      -3.30584191      -2.22822828       1.30911268
Ba       2.03439170       1.82858331       6.74764826       1.69401622       1.80988921      -1.82326038
Ba       6.59577494       2.12424635       6.60365368      -3.05499341       1.22331973      -3.27954275
Ba       2.32502505       6.26356666       2.16328416      -0.45775726      -6.52707164       0.89028506
Ba       2.28121836       6.39949994       6.70645891      -3.59279828       0.67798863      -1.41875352
Ba       6.43462893       2.10557658       2.28095101       0.81497841      -3.13314688       5.01280945
V        4.49669984      -0.01363267       0.23881279      -3.83223659      -0.76360247       1.40620324
Ta       4.26451793       4.10598580       4.60528432       2.92015933       4.56940984      -2.06288404
Ta      -0.02786550      -0.20439682       4.49963663      -2.20547890      -3.00632255       4.31611963
Ta      -0.00355362       4.10705729       0.14793110      -1.43634861       0.79177639       1.49684276
Bi      -0.09368914      -0.16643402       0.12184918      -2.89485196      -5.98809068      -6.28585884
Bi       4.36010777       4.08747396       0.22486676       4.70985678       1.20339361      -0.73125391
Bi       4.23157194      -0.25804238       4.53947364      -3.64533534      -5.31351414       0.44192688
Bi       0.03947872       4.08131419       4.58618671       1.98895268      -1.78288004       1.25983352
O        2.40625495       4.51525697       4.70010580       1.13791808       0.40847560       0.16509478
O        6.24682921       4.07882521       4.27175362      -0.21466479       2.04152093      -0.02287093
O        3.98686474       2.17353236       4.63134567       1.07020775      -0.67065484       1.07726891
O        4.51845544       6.25143513       4.01199219       0.07680874       0.40611101       1.10053094
O        4.23744541       3.84757705       2.25829083       0.04972053       0.58513592       0.64069392
O        4.55480992       4.18662747       6.54001755      -0.27461688      -2.54449858      -0.49644535
O        6.75468711       0.13191711       4.33251061       1.81806026       1.80984328       0.33397141
O        2.07711717      -0.40578155       4.74526045      -1.86697014       1.64349563       0.28690861
O       -0.23266805       6.36605449       4.90467114       0.78077070       0.63823702      -0.16760009
O        0.69697648       1.84600413       4.44362746      -0.50852902       1.06400627       0.32368216
O        0.23374304      -0.11427091       2.44276782       0.80487499      -0.39226776       1.24330156
O       -0.05592945       0.02382588       6.40097627       0.04006343      -0.27209157       0.07334425
O        6.77091767       4.19631250      -0.10037969      -1.15205085      -0.20803018       1.71606300
O        1.91686920       3.92194108       0.18201059      -0.93910362      -1.83153221       0.14436609
O       -0.09078957       2.03097658      -0.08568517       0.99627091       0.25110850       1.60742918
O       -0.00823608       6.24762724       0.10664635       0.44113030       2.55332140       0.31935796
O        0.14311573       3.86518861       6.70620001      -0.77284347       1.85537354       1.65008384
O        0.00556445       4.07856918       2.11916087       0.41739253      -0.23806568       1.03255162
O        2.52269686      -0.06041174       0.15620481       0.14378085      -1.29752362      -0.65624932
O        6.36228957      -0.35932592       0.39021821       0.27868300      -1.27763107       2.01203957
O        4.39752097       6.53181127       0.39007956      -0.20821945      -0.85404392      -1.69112816
O        4.77473545       1.90659186      -0.04655903       3.22795811       1.46209011      -0.33260166
O        4.49481937      -0.30698155       6.74546089      -0.74089260       2.35639337       0.64410714
O        4.09462993       0.09466219       2.09487290       1.06467592       2.47226999       0.10215597
40
Lattice="8.646899232814828 -3.0951167602343822e-18 -3.729457662991314e-19 -8.299181672333369e-17 8.6468992328142 -2.56378216133722e-13 2.2949782747845602e-17 -1.9398790847725783e-13 8.646899232815079" Properties=species:S:1:pos:R:3:momenta:R:3 group=ta0.75_md x=0.75 dopant=Ta pbc="T T T"
Ba       2.23161826       2.09380365       2.25590155      -1.34214842       1.99530073      -2.69418686
Ba       6.45972922       6.15552398       6.70577750       2.98144174      -5.27811124      -1.89373619
Ba       6.40113560       6.23754948       2.38520347      -0.19379305      -1.30589297       1.61085359
Ba       2.12780620       1.89163104       6.72939737       4.47853403       3.25447106      -1.75373428
Ba       6.48529045       2.14372438       6.52154864      -4.16657986      -0.23838595      -2.04377811
Ba       2.32404970       6.08279883       2.18254336      -0.86534729      -5.84090746       0.01282168
Ba       2.13943049       6.38122269       6.68076136      -5.57236609      -2.19103318       0.53954986
Ba       6.46016927       2.02128975       2.39626146       1.17984484      -2.45637609       3.30965627
V        4.27989814      -0.13753141       0.34176727       1.20470095      -1.46496306      -0.25784802
Ta       4.32980004       4.15639741       4.53372934       2.46321202       2.39826371      -3.16261975
Ta      -0.01320909      -0.23307047       4.56796721       2.23613976       2.37395599      -0.43528697
Ta      -0.01473948       4.10165383       0.22219128       0.54753612       0.67988323       7.49782683
Bi      -0.16255157      -0.27329948       0.04320021      -2.73390658      -4.82689748       1.04509363
Bi       4.41156401       4.08613546       0.19030129       2.31205042      -1.50914744      -2.71336012
Bi       4.16817069      -0.30510116       4.54490353      -0.98618764       1.67688346       1.88463823
Bi       0.08349309       4.09034171       4.58424704       2.68300632       5.28369175      -1.38680690
O        2.27595392       4.65444834       4.53167601       0.17845002      -0.58346899      -0.73148102
O        6.40375662       4.35233417       4.46365535      -0.40567722      -0.50523902       1.58083586
O        4.27598196       2.22871734       4.63486357      -0.17096302      -0.18504402      -0.52132992
O        4.44728707       6.21842749       4.60991756      -0.46684240       0.19049702       2.57189821
O        4.16344249       4.12368823       2.66169634      -0.67484652       1.76980766       0.22371161
O        4.55375905       4.23719761       6.62297758      -0.21833988       2.17400293       1.92398599
O        6.71796030       0.49066607       4.43404750       0.51584728      -0.57586133       1.15465710
O        2.07382986      -0.27436089       4.81224508       0.04989449       0.32585755       1.12843814
O       -0.24190803       6.55112643       4.65876002      -1.79990836      -1.73827779      -0.35178236
O        0.30128562       2.03622470       4.62438799      -0.92139608      -2.10680756       1.06360594
O        0.37372808      -0.28885240       2.71037740       0.22095056      -0.74875080       0.88041966
O       -0.15974309       0.10271203       6.66094007      -0.72428384       0.61993272      -0.82157444
O        6.66739097       4.39122967       0.41927285       2.07745121       1.73804339       1.93803379
O        2.06384642       3.86387296       0.21992662       0.27335207       0.31061167       0.16689627
O       -0.09092059       2.16573478       0.49595854      -0.54103064      -2.77141331       1.03266813
O        0.38625918       6.02252303       0.06326602       2.04069553       0.08079614      -0.30281454
O       -0.08650306       4.40993806       6.84149701      -1.02111942       0.81083143      -0.97111115
O        0.06628781       4.35253926       2.22797989       0.52770092       2.30354168       0.70433140
O        2.50444601      -0.10081186      -0.07926844      -1.57697669       1.07454470      -0.41885923
O        6.49955080      -0.54699967       0.56884392       0.55222799      -0.94678098      -0.52267514
O        4.31973779       6.36166533       0.09570485      -0.50439601       0.05645345      -0.32518436
O        5.08883983       1.81385340       0.16178954      -1.55618351      -1.41164895       1.19171846
O        4.53228991       0.00302858       6.76661426       0.57856745       0.12546876      -1.74626542
O        4.41024156       0.32263449       2.09179720      -0.56135263      -1.63077187       0.37861198
40
Lattice="8.646899232814828 -3.0951167602343822e-18 -3.729457662991314e-19 -8.299181672333369e-17 8.6468992328142 -2.56378216133722e-13 2.2949782747845602e-17 -1.9398790847725783e-13 8.646899232815079" Properties=species:S:1:pos:R:3:momenta:R:3 group=ta0.75_test x=0.75 dopant=Ta pbc="T T T"
Ba       2.28036000       2.31099398       2.12596384      -3.77921118      -1.46221050       1.52778670
Ba       6.46428762       6.53034457       6.40428104      -0.34145538       2.32259098       1.84500167
Ba       6.40991916       6.56909398       2.15523832      -0.22285163       3.38058548      -3.75523902
Ba       2.45696157       2.17581671       6.75077537      -0.15235775      -2.18846514      -1.60876279
Ba       6.44045640       2.20979778       6.49113995       2.37120326      -4.00171059      -0.60035653
Ba       2.33627085       6.54750814       2.03968281       0.43762405       0.25335508      -2.10691975
Ba       2.10365637       6.52215829       6.35614359       3.26411870      -3.63887319      -0.17085268
Ba       6.54940037       2.23615337       1.88659764       0.53759883       0.27976044      -0.27232434
V        4.42316282      -0.02321139       0.12957671       0.39634761      -0.50934764       1.54814252
Ta       4.31149177       4.37871118       4.27194996      -2.77113521      -3.89732463      -2.52067865
Ta       0.10286882       0.02979805       4.15212153       2.06414472       1.89524680       2.64999739
Ta       0.05474689       4.35352041      -0.16854354       3.77550171       1.41501029       1.63047191
Bi       0.04980322       0.06571412      -0.20938958      -0.01715171       4.23643176      -0.24846718
Bi       4.51421478       4.34573665      -0.03304591      -1.92402851       3.33081165      -0.14006406
Bi       4.37810051       0.22053386       4.35166723      -1.98798959       0.09327918       0.51571947
Bi      -0.06173224       4.28411194       4.08288843       1.39388658       1.49803238      -4.28120571
O        2.36165665       4.16438214       4.35220514      -0.10342123      -0.47253814       0.48010460
O        6.42340873       4.66802034       4.42154911       0.46033570       0.96499675       0.69612399
O        4.67078379       2.28190296       4.28388189      -1.47569581      -0.18612927      -0.08962713
O        4.17326239       6.31016339       4.18418430      -0.21695177      -0.16486270      -0.68402063
O        4.55153425       4.46947985       2.31016339       0.91667272       1.12858105      -0.78412835
O        4.28218893       4.29486388       6.30398502      -0.42204330       0.67268620      -0.46162736
O        6.70998991      -0.05383989       4.08869281       0.23547081      -0.93365772       0.06590152
O        2.01550441       0.36375210       4.41681069       0.46960941      -1.31798347       1.24722393
O        0.20589902       6.73784470       4.48112432      -0.15197514       0.23524753       1.47228641
O       -0.14934034       2.13227565       3.54060895      -0.24449556       0.33494652      -0.96133225
O        0.46211666      -0.21397625       2.20682903      -0.30786580       0.22795930       1.43670015
O       -0.00695148       0.42466005       6.20070571       0.51511555      -0.12979797       0.37485447
O        6.75711249       3.98870291      -0.17711773      -0.35758242       0.75142201      -0.82260785
O        2.12763322       4.50087382       0.07251124       0.36745403      -0.65541245      -0.86336763
O        0.45608691       2.54340059       0.25565462       1.87450771       0.32670527       0.26857507
O        0.03764833       6.43976325      -0.56237203      -2.10388962      -0.41799763      -1.50141969
O        0.01753184       4.08758332       6.56211719       0.50854477      -0.38912670       0.25321401
O       -0.30154287       4.77202569       1.78728895       0.94326847       0.89432146       1.50210641
O        2.63394351      -0.13057087      -0.09360639      -0.09035278      -0.46184999      -0.58908836
O        6.38296195       0.42391237       0.12375654       0.39408753       0.35489211       0.76603343
O        4.86320130       6.84915774       0.12575012      -0.61328767      -0.49811562      -0.80171371
O        4.22758157       2.26676996       0.03146416      -0.38950867       0.25162914      -0.23505961
O        4.56081836       0.06111290       6.72443836      -0.76628403       0.32731634       1.09094978
O        4.21670251      -0.00468357       2.01188527       1.35414063      -0.02084441      -0.82313754
40
Lattice="8.646899232814828 -3.0951167602343822e-18 -3.729457662991314e-19 -8.299181672333369e-17 8.6468992328142 -2.56378216133722e-13 2.2949782747845602e-17 -1.9398790847725783e-13 8.646899232815079" Properties=species:S:1:pos:R:3:momenta:R:3 group=ta0.75_test x=0.75 dopant=Ta pbc="T T T"
Ba       2.20434754       2.24623310       2.17101793      -0.42523289      -3.09542576       0.92427722
Ba       6.44027443       6.61594500       6.42407906      -1.06779883       3.57177932       0.23253148
Ba       6.39037171       6.67417827       2.10057960      -0.24953046       3.95967009      -1.74871247
Ba       2.41815272       2.08887277       6.68671796      -2.30400006      -4.34701855      -2.17745219
Ba       6.50528484       2.09099833       6.46419031       2.01855281      -2.79130923      -0.95499959
Ba       2.32509692       6.59270374       2.01532491      -0.90713607       2.28948062       0.23206882
Ba       2.22904408       6.41244099       6.35264168       5.22464689      -4.07752001       0.53575032
Ba       6.54134360       2.23115794       1.91437642      -0.41729773      -1.02667052       1.37146455
V        4.37463695      -0.06724701       0.04357993      -2.79632831       1.30255676      -2.87397484
Ta       4.27729823       4.33484438       4.23919025       0.63443755       0.28360961      -0.12151542
Ta       0.12384566       0.06715982       4.22398511      -0.09382378       1.48324161       3.40165296
Ta       0.15981719       4.42749899      -0.14244598       4.73661615       4.74539060      -0.32978395
Bi       0.06014056       0.14673253      -0.20461285       2.04256551       3.66111713       1.19931183
Bi       4.44943670       4.43866040      -0.07716517      -4.60439352       3.89121131      -3.17257997
Bi       4.33290464       0.14934655       4.35688089      -3.40022585      -7.06108530       0.12992250
Bi      -0.02730602       4.32089671       4.04109606       1.42808383       1.78244962       0.47093678
O        2.33806492       4.15562636       4.02782416      -0.28780315       1.04686904      -2.38229167
O        6.35993179       4.58898424       4.45908349      -0.06975733      -0.83727886      -0.97105648
O        4.48894315       2.39186928       4.18954460      -0.15888502      -0.69006327      -0.34222500
O        4.06073739       6.39963520       4.12035158      -0.68437286       0.29236941      -0.41113232
O        4.62095924       4.32829570       2.18263923      -0.37239303      -1.23882417       0.18343179
O        4.29374146       4.46351052       6.22229664       0.02324378       0.77191261       0.07122027
O        6.84988528      -0.07765851       4.15852740       0.35789777       1.01758120       0.75749028
O        2.24369129       0.14236432       4.67944069      -0.26397108       0.13193620       0.42297324
O        0.23603665       6.83640634       4.68218490       0.82568788      -0.58853541       0.21003728
O       -0.02307651       2.07131154       3.78027583       0.37305420      -0.24741122       2.24550231
O        0.36599491      -0.29770535       2.32875155       0.32400903      -0.59935937       0.21030681
O       -0.06924593       0.53094425       6.31083011      -0.71044283       1.38036529      -0.46008696
O        6.81131165       4.12424976      -0.20745766      -0.25597692      -0.48082876       0.75118381
O        2.05108319       4.85982005      -0.09628971       0.29841045       2.85659772      -0.08945228
O        0.45721125       2.36043714       0.19700243      -1.59307157       0.16455316      -0.09983967
O       -0.26679595       6.27433964      -0.52136359       0.40926828      -1.18827914       1.37184882
O        0.32514755       3.91279839       6.64381617       1.73957717      -0.42216984      -0.03665099
O        0.13219284       4.95026328       1.91532208       1.97943159      -0.30501120      -0.58405314
O        2.54643384      -0.28778903      -0.15692582       0.66294630      -0.66918202       0.10093083
O        6.65230892       0.29368435       0.11227893       0.03676059      -1.24080580      -0.99307209
O        4.65578844       6.72920099      -0.05020609      -0.43219194      -0.50047431      -0.40270667
O        4.18684983       2.05988257       0.09582091      -0.08666723      -0.37347556      -0.16174169
O        4.60071669       0.17447166       6.70832871       1.19691546       0.63299882      -0.78660460
O        4.52947000       0.13979282       1.92084141       0.41908426       0.05518560      -0.29956832
40
Lattice="8.691417085929421 4.979382245803516e-19 9.616817014047946e-19 5.441005628849337e-18 8.691417085929741 -2.706250001175394e-13 1.2875106470988496e-17 -7.201332947015692e-14 8.691417085928915" Properties=species:S:1:pos:R:3 group=ta1_min x=1.0 dopant=Ta pbc="T T T"
Ba       2.17285427       2.17285427       2.17285427
Ba       6.51856281       6.51856281       6.51856281
Ba       6.51856281       6.51856281       2.17285427
Ba       2.17285427       2.17285427       6.51856281
Ba       6.51856281       2.17285427       6.51856281
Ba       2.17285427       6.51856281       2.17285427
Ba       2.17285427       6.51856281       6.51856281
Ba       6.51856281       2.17285427       2.17285427
Ta       4.34570854       4.34570854       4.34570854
Ta       0.00000000      -0.00000000       4.34570854
Ta       0.00000000       4.34570854      -0.00000000
Ta       4.34570854       0.00000000       0.00000000
Bi      -0.00000000       0.00000000      -0.00000000
Bi       4.34570854       4.34570854      -0.00000000
Bi       4.34570854      -0.00000000       4.34570854
Bi      -0.00000000       4.34570854       4.34570854
O        2.34484561       4.34570854       4.34570854
O        6.34657147       4.34570854       4.34570854
O        4.34570854       2.34484561       4.34570854
O        4.34570854       6.34657147       4.34570854
O        4.34570854       4.34570854       2.34484561
O        4.34570854       4.34570854       6.34657147
O        6.69055416      -0.00000000       4.34570854
O        2.00086293      -0.00000000       4.34570854
O        0.00000000       6.69055416       4.34570854
O       -0.00000000       2.00086293       4.34570854
O        0.00000000      -0.00000000       2.34484561
O        0.00000000      -0.00000000       6.34657147
O        6.69055416       4.34570854      -0.00000000
O        2.00086293       4.34570854      -0.00000000
O        0.00000000       2.34484561      -0.00000000
O        0.00000000       6.34657147      -0.00000000
O       -0.00000000       4.34570854       6.69055416
O       -0.00000000       4.34570854       2.00086293
O        2.34484561      -0.00000000      -0.00000000
O        6.34657147      -0.00000000      -0.00000000
O        4.34570854       6.69055416      -0.00000000
O        4.34570854       2.00086293      -0.00000000
O        4.34570854      -0.00000000       6.69055416
O        4.34570854      -0.00000000       2.00086293
40
Lattice="8.691417085929421 4.979382245803516e-19 9.616817014047946e-19 5.441005628849337e-18 8.691417085929741 -2.706250001175394e-13 1.2875106470988496e-17 -7.201332947015692e-14 8.691417085928915" Properties=species:S:1:pos:R:3:momenta:R:3 group=ta1_md x=1.0 dopant=Ta pbc="T T T"
Ba       2.15408395       2.16573163       2.10156239       2.60809383      -0.25313957      -0.66183877
Ba       6.36080181       6.50481176       6.53493802      -2.97682777       0.60373162       1.15801607
Ba       6.47255971       6.67382429       2.05907502      -3.23001459      -0.88870618      -0.67406330
Ba       1.95337899       2.25244053       6.37952092      -1.05893514       2.74552367       3.55811298
Ba       6.33050064       2.27313524       6.54592463      -1.42169215       1.42706691      -1.19458779
Ba       2.10013047       6.38516249       2.16824333      -1.09368173      -3.15264683      -1.32950486
Ba       2.01271377       6.55411745       6.57477689       0.56165603      -1.43780382      -1.56648921
Ba       6.40068657       2.02094899       2.09584037       1.10617154       2.24247890      -2.99587762
Ta       4.25924700       4.34128450       4.27887216      -2.74537484      -3.11185618       2.32297300
Ta      -0.17057293      -0.02610938       4.24196869      -1.28487832       1.73294750      -1.74704675
Ta      -0.01517418       4.27290451      -0.06415942       1.88018313       0.26450761       2.75891291
Ta       4.21256452       0.08563907      -0.09985891       0.99568395       0.75866803       2.76789533
Bi      -0.04806401       0.07277421      -0.03184567       0.73169106       0.35299152      -1.89487446
Bi       4.18579597       4.33592032       0.01823881      -4.58686595      -0.18178074      -1.74749841
Bi       4.12882341       0.00289504       4.18001542      -1.93597300      -0.70500689      -4.14587159
Bi      -0.10618164       4.26390125       4.22345173       2.11881929      -2.35195059      -1.80468559
O        2.14812735       4.23975120       4.05976555      -1.03684975      -0.00836796       0.66157723
O        6.19103418       4.58354870       4.58975441       0.84033726       0.26831434      -0.21261471
O        4.21326375       2.48888507       3.68746368       0.20204527      -0.45846140       0.40072387
O        4.07433665       6.42263249       4.59308922       0.28397002       0.72008462      -0.61461556
O        4.26184854       4.93079363       2.23757650      -0.08575982      -0.07583906       0.25369113
O        3.96741771       4.08380569       6.22822205       0.65661483       1.44209253      -0.27918963
O        6.50541726       0.05122964       3.94273629       0.58396896       0.65386477       0.62701021
O        1.76259417      -0.03158766       4.66655470       1.02436880      -0.29017665      -1.48541211
O       -0.19903870       6.76106454       3.93168136       0.45526162       0.19206158       0.67606016
O       -0.30669590       1.95958823       4.69555815      -0.02863108       1.43235896      -0.28641675
O        0.24903818       0.39961286       2.26366815       0.24816650      -0.44942035       0.96896431
O       -0.42911420      -0.31195696       6.27276668      -0.17277683      -0.56025650       0.38841773
O        6.72723392       4.48830918      -0.27478170       1.28021616      -0.06895610      -0.17944537
O        1.93974154       4.30547701       0.07830327      -0.82888198       0.45212024      -0.55852667
O       -0.26887827       2.26076895      -0.37047998       0.45535073      -0.23160422       0.59946482
O        0.13616091       6.28384623       0.31332815       0.28913784      -0.95486913       0.76239225
O        0.13978277       4.42112968       6.64046450      -0.05367844      -0.38848075       1.29942623
O       -0.22871698       3.97170901       1.96622484      -0.17638990       0.59738157       0.66419634
O        2.33118504       0.17279174      -0.38022626       0.36507146       0.73548785       0.61906237
O        6.34382544       0.08052514       0.41022211      -0.79760929       0.32036470      -0.02192325
O        4.30781235       6.81527093      -0.36210028       0.57745410      -0.70945373       0.26167665
O        4.32132503       2.10256016       0.32922445      -0.30127139       0.88995311      -0.77861466
O        4.63960940       0.38653468       6.70600227      -0.27060874      -1.47638307       0.30797750
O        3.86444328      -0.23031510       2.04882853      -0.85333286       0.35037622      -0.78075114
40
Lattice="8.691417085929421 4.979382245803516e-19 9.616817014047946e-19 5.441005628849337e-18 8.691417085929741 -2.706250001175394e-13 1.2875106470988496e-17 -7.201332947015692e-14 8.691417085928915" Properties=species:S:1:pos:R:3:momenta:R:3 group=ta1_md x=1.0 dopant=Ta pbc="T T T"
Ba       2.20742623       2.18235159       2.06834358       0.72845372       0.17507114      -1.39693808
Ba       6.26462414       6.52325993       6.55087593      -3.08250993       1.15925025      -0.00477041
Ba       6.38068637       6.62399768       2.04623824      -3.15936956      -2.24419610       0.78853644
Ba       1.93002409       2.32354996       6.47910222      -0.14617745       1.84572362       3.97081174
Ba       6.32827826       2.31727033       6.49957439       0.92626497       1.96567423      -2.28964538
Ba       2.06437133       6.31495450       2.14651876      -1.90899225      -1.28205287      -0.06506488
Ba       2.03503920       6.49996226       6.51036279       1.32253233      -1.33686981      -3.41813837
Ba       6.43304922       2.11075261       2.01637910       1.20936089       4.04650309      -1.52980194
Ta       4.19955510       4.32905002       4.30749379      -2.21061511       1.37177920      -0.27431623
Ta      -0.18032768      -0.00023506       4.25034697       1.60082855       0.23109953       1.31636214
Ta      -0.03184699       4.32337170       0.00743773      -2.81127816       2.67046523       2.12757995
Ta       4.26159907       0.07104207      -0.05371998       2.60470325      -1.83052404       0.53664268
Bi      -0.05829109       0.05896978      -0.07390119      -1.01598782      -1.06323168      -2.44431888
Bi       4.14695207       4.36258766      -0.02115109       0.42038288       2.12784103      -1.88514566
Bi       4.09102572      -0.03350993       4.14497932      -2.06931071      -2.80122546      -0.08274157
Bi      -0.08844805       4.23667922       4.21442407      -0.00317418       0.04636079       0.60555384
O        2.23461495       4.25239990       4.18972018      -0.17443477       0.14660269       0.11100889
O        6.13754160       4.44868805       4.42324642       1.31198286      -0.61648186      -0.38202094
O        4.37118384       2.42727302       4.05466569       0.55503020      -0.44277565       1.72365851
O        4.03546903       6.47363687       4.45723631      -0.50117817      -1.07880328      -0.15895452
O        4.35685133       4.63850842       2.28958448       0.13746651      -1.61263294      -0.04214910
O        4.07399687       4.16759198       6.29212308       0.17816618      -0.37635781       0.95053376
O        6.62755395       0.09965358       3.93494163       0.14299710      -0.19799589      -0.31091794
O        1.94621849       0.14890152       4.41862434      -0.83386482       1.47423343      -0.01541934
O       -0.09213263       6.76905339       4.01071699       0.26586049      -0.28968102       0.09652673
O       -0.14047552       2.08374044       4.54648096       1.09393078      -0.63483313      -0.07649399
O        0.11324852       0.27882635       2.31471002      -0.86255400      -0.33425367      -0.74199185
O       -0.30350396      -0.32958058       6.35483327       1.08725834       0.79253627      -0.08971774
O        6.68543604       4.38125859      -0.25062926       0.30831585      -0.96615838       0.22268052
O        2.02319767       4.14244272       0.12093625      -1.38511994      -1.14843003       0.90231109
O        0.00141649       2.27415802      -0.19111264       0.66183878       0.80875470       0.42716051
O        0.10189339       6.24786064       0.29428257      -0.25763596       0.47362643      -0.31252756
O        0.29630324       4.50538936       6.73417220       0.55361297       0.83907069      -0.56879179
O       -0.16217861       3.95542061       1.97703910       0.75960150      -0.13082400       0.00620006
O        2.09335618       0.28209784      -0.28344414      -0.91733863      -0.24443250      -0.16804152
O        6.16762692       0.10818518       0.28856001      -0.16625653      -0.20057919      -0.57119457
O        4.21230732       6.81332665      -0.18848254      -1.54221447      -0.12071018       0.93921740
O        4.27843965       2.06281999       0.12792493       0.01368448      -0.53454103      -0.77396413
O        4.51759010       0.17101909       6.65089425      -0.49376521      -0.42115187      -1.13848059
O        3.83279371      -0.13314072       1.89407955       0.56381738       0.12908040       0.40845076
40
Lattice="8.691417085929421 4.979382245803516e-19 9.616817014047946e-19 5.441005628849337e-18 8.691417085929741 -2.706250001175394e-13 1.2875106470988496e-17 -7.201332947015692e-14 8.691417085928915" Properties=species:S:1:pos:R:3:momenta:R:3 group=ta1_md x=1.0 dopant=Ta pbc="T T T"
Ba       2.19296349       2.16341021       2.07375599      -1.44588792      -1.15468917       1.43086278
Ba       6.20240171       6.58032626       6.51793945      -1.03585853       2.82503326      -1.93270437
Ba       6.33988141       6.55950725       2.09748506      -0.40107320      -2.20025382       2.75652678
Ba       1.95476528       2.32985584       6.57378676       1.66616718      -0.99535975       2.26178870
Ba       6.36190204       2.35064795       6.42310895       0.63189852       0.32349078      -2.71452668
Ba       2.00569463       6.31389858       2.16825320      -1.77523739       0.68755059      -0.04018019
Ba       2.06648323       6.49637663       6.41047407       0.55951707       1.35819912      -3.05540345
Ba       6.47905012       2.22383440       1.98896758       1.37558801       3.07578544      -0.69664969
Ta       4.18220828       4.32391298       4.29059363       1.21781014      -3.48014382      -0.64134040
Ta      -0.11377552       0.00772438       4.26232995       2.96135024       0.00824814      -0.91370976
Ta      -0.10504278       4.36044262      -0.00084386      -3.64530927       2.01287750      -1.81378363
Ta       4.23648676       0.04674398      -0.08064806      -4.06658809      -0.45531047      -1.86739279
Bi      -0.06655853       0.04132339      -0.11064034       0.01406612      -1.30967640      -0.77806026
Bi       4.15942558       4.39143751      -0.05438498       0.75362984       1.07575463      -1.59355750
Bi       4.06775660      -0.05729718       4.18161337      -0.59482257      -0.07579854       3.02031128
Bi      -0.09833095       4.25572708       4.23068927      -1.04985459       2.18517849       2.12306483
O        2.25091704       4.21540584       4.12671414      -0.15480457      -0.45446555      -0.37634319
O        6.23396772       4.50169742       4.46979806      -0.65709027       0.59411680       0.41834836
O        4.34257695       2.25820817       4.31169594      -0.47633303      -1.15969382       0.21245015
O        4.02755845       6.26712122       4.49531352       0.37509037       1.18330488       0.06176579
O        4.31576345       4.27949058       2.34976374       0.29756430      -0.73992263       0.66653134
O        4.14030116       4.24532557       6.32532736      -0.12743785       0.96208356      -0.77502940
O        6.50557906      -0.08503751       4.00216113       0.28526710      -1.19330042       0.73512241
O        1.88444673       0.25647977       4.41485900       0.38826932      -0.93195112      -0.38407446
O        0.01111280       6.69200469       4.01843295       0.63189518       0.13620778      -0.31601739
O       -0.16815218       2.03443616       4.60788935      -1.26260620       0.85847020       0.07698504
O       -0.01584962       0.22051775       2.16651320       0.00083034       0.22554818      -0.35400383
O       -0.29589690      -0.16320568       6.14523212      -1.07771421      -0.22599064       0.36392375
O        6.63522347       4.33302688      -0.16843163       0.12449069       0.87031354       0.65070770
O        2.01181930       4.17262078       0.31753931       0.26035616       0.91828208       0.10970256
O       -0.20772953       2.29550506      -0.28951402      -1.40513017      -0.58517655      -0.90141320
O        0.01071395       6.34220746       0.28009485      -0.43669096      -0.10672795       0.39712778
O        0.18395666       4.64903143       6.81764706      -0.72645355      -0.04863636       0.97096834
O       -0.12117907       4.09524526       2.03908421      -0.63235930       0.78092394       0.05982387
O        2.28936792       0.08727178      -0.37921049       0.24914377      -0.48990150      -0.32617898
O        6.23719828      -0.15842233       0.18385540       1.24870633      -1.78046979      -0.81858729
O        3.90790659       6.63872934      -0.09194103      -0.19264876      -0.34457181      -0.36874832
O        4.34753159       1.98606672       0.03055329       0.53136424      -0.84984254       0.15953952
O        4.48764668      -0.00986717       6.71605827       0.50427987      -1.17084268       0.52703806
O        3.99855797      -0.10099021       1.93837292       0.52717272       0.03644056       0.32949589
40
Lattice="8.691417085929421 4.979382245803516e-19 9.616817014047946e-19 5.441005628849337e-18 8.691417085929741 -2.706250001175394e-13 1.2875106470988496e-17 -7.201332947015692e-14 8.691417085928915" Properties=species:S:1:pos:R:3:momenta:R:3 group=ta1_md x=1.0 dopant=Ta pbc="T T T"
Ba       1.99203705       2.18848095       1.85199146       2.75103923      -2.35161754      -5.39472552
Ba       6.33320144       6.62036747       6.29076071      -0.99521629      -1.88658662      -2.86355726
Ba       6.53493519       6.67217954       2.09002374       1.23032600      -1.19574148       1.68507900
Ba       2.22458451       2.15979845       6.41230111      -3.85416926       5.57257585       3.46822818
Ba       6.42326746       2.46141643       6.38990817      -1.95914429       3.70624386       3.02090820
Ba       1.99359743       6.57595797       2.10104355      -1.82434030       0.17984715      -4.10609629
Ba       2.04763930       6.34024275       6.63720618      -4.48573380      -5.60624886      -0.64471516
Ba       6.54749645       2.01855641       2.14388434      -4.76541312      -3.09155395      -3.69371064
Ta       4.28932682       4.37463889       4.25059136       0.29719734      -0.52439095       3.02754848
Ta       0.02353161      -0.05831345       4.21957110       3.38122092      -5.51384900      -6.43973965
Ta      -0.23359012       4.37301380      -0.20703793       0.01990894       6.23792886      -3.82977236
Ta       4.24698128       0.00749162      -0.06312168      -2.78100651       2.52842486       3.54569111
Bi      -0.04507763      -0.08203922      -0.21213380       0.06909102       2.88587033      -1.70596750
Bi       4.09380874       4.27989419       0.09166492       2.16054516      -2.34463847      -9.04089776
Bi       4.32971632       0.01285666       4.27161301       8.10199346      -2.66861244       1.57261150
Bi      -0.14477943       4.29924690       4.24095765       5.20596811       2.31420183       2.05004067
O        2.06638769       4.63524040       4.33502491       0.53334307       0.13712904      -0.21733015
O        6.01419700       3.75936777       4.17968824       0.21367803      -0.22926177       1.12199657
O        3.80133021       2.27768017       4.35021087      -2.19466554       0.28499054       1.80917892
O        4.62374203       6.30253957       4.22067210      -0.43631589      -0.62690403       1.34903640
O        3.92798321       4.39620317       2.15409442      -1.08238171       0.30280139       0.64255150
O        4.27026647       4.44836852       6.23232572      -1.09245389       0.81722826      -1.19384498
O        6.48160996       0.35541154       4.22875122      -1.18007020      -0.55419867       1.80855529
O        1.84474504      -0.47285980       4.33605146      -0.47385800       1.17101205      -0.51437280
O       -0.52678537       6.62892972       4.13693253      -1.19634113       1.62809025       0.01052414
O       -0.02378321       1.98931316       4.18444342      -2.12480651      -0.66899797      -0.25143941
O        0.19904521      -0.37829711       2.17717953      -0.93898085      -0.55950957       1.06681118
O       -0.41765012       0.08086515       6.15484983      -0.59923473       1.26596094      -0.23040386
O        6.61489088       4.00987654      -0.03559811       0.48442665      -0.96456643       1.28631018
O        1.89736157       4.18007119      -0.06460453       0.89229041      -1.68186439       0.22313554
O        0.03146223       2.06479091       0.06909261       1.58926532      -1.15018947       0.24303809
O       -0.24207168       6.19322243      -0.65996099       0.83934898      -1.28868144       0.27128206
O       -0.40081713       4.11103902       6.49175668      -0.69172676       0.35232362       1.33215159
O       -0.24872652       4.72535531       1.84429201       2.30112229       0.41085789      -0.34567905
O        2.12283632      -0.15093141      -0.30496875      -1.01145720       1.34409776       0.83065397
O        6.17879509      -0.13767287       0.23472696      -0.92066077      -1.14860157      -0.39559901
O        4.15105086       6.52474305       0.26904626      -0.22658508       0.46364842       1.01475490
O        4.36032438       1.86288908      -0.41392852      -0.38346475      -0.33452739       1.09862606
O        4.69530553      -0.26182401       6.60175954      -0.33404338       0.84160794       1.63081311
O        3.82130827       0.17678268       1.85184473      -1.32196444       1.20937568       0.12959865
40
Lattice="8.691417085929421 4.979382245803516e-19 9.616817014047946e-19 5.441005628849337e-18 8.691417085929741 -2.706250001175394e-13 1.2875106470988496e-17 -7.201332947015692e-14 8.691417085928915" Properties=species:S:1:pos:R:3:momenta:R:3 group=ta1_md x=1.0 dopant=Ta pbc="T T T"
Ba       2.09362835       2.12556098       1.75443522       3.47260173      -2.78162408      -1.97294571
Ba       6.29005696       6.60385012       6.22399088      -2.11803992       0.71958907      -0.73706469
Ba       6.51701755       6.59226110       2.12888691      -2.35100050      -3.66907333      -0.10387326
Ba       2.06201162       2.30128552       6.53378762      -7.85809359       4.72849982       4.11994696
Ba       6.34432920       2.42649262       6.47756261      -2.37785106      -4.56959648       3.45142633
Ba       2.03935178       6.55484353       1.96483711       3.84569756      -0.57818225      -5.18441846
Ba       1.99173065       6.22468504       6.58776250      -0.17006670      -1.06849437      -2.39123581
Ba       6.40766139       1.97350330       2.02260525      -4.47587203      -0.73280407      -3.60494285
Ta       4.20457270       4.29759857       4.28047759      -6.44860526      -4.89077741       0.26217885
Ta       0.01503782      -0.10128758       4.17099823      -3.22831465       2.28744351       1.83628160
Ta      -0.19028764       4.38861105      -0.16366782       3.69306286      -2.55097251       5.26520676
Ta       4.20303100      -0.02829932       0.01241594      -3.46240709      -5.23435899       3.73881728
Bi      -0.07559676      -0.00329255      -0.26872809      -0.98718971       4.88687765      -2.15644703
Bi       4.13520415       4.27752392      -0.09785666       3.41039686      -0.03651636     -10.68988061
Bi       4.39917040      -0.02582298       4.29265523      -1.06834943      -1.14738763       1.52381047
Bi      -0.03517629       4.34419532       4.25083658       5.05564880       1.42486813      -1.06157022
O        2.04447471       4.82386748       4.47278279       0.74073329       1.07641761       1.17520918
O        6.16022066       4.02775800       4.22736095      -1.82255349       2.24880587       0.51606171
O        3.83855527       2.44474086       4.60200774       3.00910046       0.84953117      -0.07881993
O        4.67993482       6.33036253       4.14538100       0.20298124       1.01064954      -1.46259350
O        3.91532494       4.14549959       2.43738511       0.69861658      -1.48913736       0.03746889
O        4.08694175       4.57928614       6.49659802       0.62932743      -0.04388901       2.30844345
O        6.52387681       0.20607069       4.10567190       1.57475298      -0.78919818      -1.35472852
O        1.85538281      -0.26882304       4.54476100      -1.05592299      -0.02507860       0.62120057
O       -0.64566657       6.65730995       4.54378299       1.74020695      -1.04282590       1.08332189
O       -0.04018620       1.92724978       3.84747430       1.74014943       0.40527545      -1.17082117
O       -0.27108046      -0.10028081       2.19188930      -1.26898352       0.32701602       0.01500741
O       -0.22350176       0.21531768       6.29873375       0.88670484       0.82661935      -0.33583718
O        6.64124402       4.06673436       0.20410169       0.56655186       1.69654598      -0.33140704
O        1.89793363       4.15696913      -0.40103084      -0.16961539       1.69483679      -1.81834100
O       -0.00981017       2.35501399       0.01092133      -2.07744260       2.60813928      -0.60250688
O       -0.09367695       6.37463776      -0.50620035       0.14695881      -0.42530971       1.16556121
O       -0.13608656       4.13641136       6.45248554       1.62947220      -0.05065220      -0.32196461
O        0.31216328       4.71529498       1.67287780       1.06857701      -0.02564589      -0.20343425
O        2.23583927       0.02442591      -0.29497287       0.51752952       0.23742640       0.85874033
O        6.10201180      -0.16634175       0.43864073       0.25172648       1.06781314       0.32367884
O        4.05081929       6.70575545       0.31863762      -0.76059507       2.14475959      -0.23832251
O        4.14668024       2.14293236      -0.02399874      -0.38160237       0.37651618       1.31574630
O        4.22424963      -0.16484888       6.72557895      -1.11193328       0.35788957      -0.88333824
O        3.91575256       0.35164962       2.08957408       2.02451796      -0.50467476       0.95861419
40
Lattice="8.691417085929421 4.979382245803516e-19 9.616817014047946e-19 5.441005628849337e-18 8.691417085929741 -2.706250001175394e-13 1.2875106470988496e-17 -7.201332947015692e-14 8.691417085928915" Properties=species:S:1:pos:R:3:momenta:R:3 group=ta1_md x=1.0 dopant=Ta pbc="T T T"
Ba       2.15898883       2.06513007       1.73185250       1.29760255      -0.71733803       1.36987978
Ba       6.24744663       6.60713325       6.20737253      -0.07461229      -1.34343128       0.56935454
Ba       6.44441693       6.47387915       2.15099945      -3.11320896      -4.27889684       0.98247239
Ba       1.85572925       2.36186155       6.59113782      -5.74679476      -0.73361849       0.09318592
Ba       6.28446032       2.28602480       6.57275422      -1.99800072      -4.80316985       1.83105067
Ba       2.11930291       6.58819498       1.88418441       0.67982730       1.35351679      -0.19576852
Ba       1.98669212       6.31565954       6.46364011      -0.12493907       7.15723090      -5.08623022
Ba       6.32547483       1.95439520       1.95808500      -2.97662986      -0.71195091      -2.01924234
Ta       4.06938172       4.24265161       4.24557951      -1.29037035      -1.69549025      -2.17850965
Ta      -0.08115128      -0.00259565       4.19649415      -1.60532343       5.47120484       0.09043256
Ta      -0.07016657       4.36048195      -0.06287292       3.32497364       1.85074850       4.04346748
Ta       4.17741386      -0.09345395       0.06548913       0.92556549      -0.65372787      -0.20039254
Bi      -0.13150352       0.04882833      -0.27543987      -3.30288383      -0.30929476       0.94892220
Bi       4.21069591       4.32532900      -0.21721165       6.22397398       3.79308954      -3.34035020
Bi       4.32913287      -0.04680337       4.31330102      -5.70149807      -1.12081117       1.79496620
Bi       0.06623388       4.38427984       4.22104838       4.44619549       1.05130021      -0.44192156
O        2.26042306       4.71008353       4.46202229      -1.93473539      -1.79362015      -0.49480421
O        6.23401229       4.49078532       4.45782285       2.14462231       1.58722376      -1.06010802
O        4.24859806       2.32605936       4.80038027      -0.10153444       0.93653716       0.41078224
O        4.36742670       6.49290323       3.99361279      -1.97440123      -1.28762144      -0.31433717
O        3.98940349       3.91924398       2.31817807       0.78452540      -0.39576601      -0.63882272
O        4.50655506       4.60689456       6.18628249      -0.29957203       0.70311071      -0.92608177
O        6.55959865       0.02561781       4.20453541       0.02335637      -0.48435947       0.85738540
O        1.90607284      -0.29197316       4.37703226       0.26230532       0.52725148      -1.15912852
O       -0.00851634       6.61384529       4.50554084       1.99812625       0.70445427      -0.11735054
O        0.45198411       1.90787379       3.87779057       0.42720938      -0.42426517       0.29059810
O        0.03160775      -0.49437859       2.25209608       1.62230222      -1.40805983       0.50553792
O       -0.34362573       0.51312937       6.19457532      -1.25941012       0.77825738      -0.13762613
O        6.56663973       4.66770327      -0.06762243       0.49881764       1.91139527      -1.22622142
O        1.93771550       4.42443812      -0.33452483      -1.16741926      -0.07387698       1.67396991
O       -0.34689577       2.28253897      -0.08904550      -0.55752531       0.12183092       0.37430040
O       -0.19173386       6.33560057      -0.37193825       0.20107610      -1.29185775      -0.11499895
O       -0.08816122       4.01039486       6.52872415      -0.30555078       0.02377502       1.19464179
O        0.25741212       4.51468057       1.85891080      -1.21949776      -1.66865704       0.42408615
O        2.01715505       0.21054121       0.08949473       0.54096722      -0.02265287       0.26707114
O        6.14097666      -0.01153673       0.08659458      -0.10459310       0.18692446      -1.24826941
O        3.98638967       6.53459530       0.28574585       1.24748476      -2.34951779      -1.31904843
O        4.09737701       1.99556204      -0.10779646       0.04684546      -0.35292087      -0.85531039
O        4.53932827      -0.11523621       6.93568745       1.89373272      -0.43447522       0.22487260
O        4.24425942       0.14847980       1.99124319       0.45515739      -0.43170892      -0.53712987
40
Lattice="8.691417085929421 4.979382245803516e-19 9.616817014047946e-19 5.441005628849337e-18 8.691417085929741 -2.706250001175394e-13 1.2875106470988496e-17 -7.201332947015692e-14 8.691417085928915" Properties=species:S:1:pos:R:3:momenta:R:3 group=ta1_test x=1.0 dopant=Ta pbc="T T T"
Ba       2.12988740       2.17732894       2.18195568      -0.14251198      -0.48294271       0.26413381
Ba       6.67536578       6.52861364       6.34171465       1.12918605       1.63790028      -0.90993287
Ba       6.50231574       6.32664316       1.98202530       4.11654368       1.06334432      -0.37615211
Ba       2.43803476       2.18789069       6.72566506       0.46415396       0.98703958      -1.79137376
Ba       6.79349742       2.28110122       6.46267203       2.26944066       1.81053440       4.39772903
Ba       2.45761171       6.56568927       2.20908316      -1.58952527       0.71231502       2.30835174
Ba       2.23832914       6.61836620       6.26854002       1.39450976       0.06387067      -1.82709078
Ba       6.64060820       2.14512478       2.39809813       2.46108972      -2.55182235      -1.91986412
Ta       4.52826536       4.41862391       4.35244269      -1.51527310      -2.60526419       2.26061394
Ta       0.14282661      -0.01358124       4.13478839       2.55574783       3.15076850       1.36188345
Ta       0.25909048       4.26941854      -0.12228586      -1.17700769       2.50922720      -3.58307904
Ta       4.62444839       0.06932313      -0.02025696      -0.52810310      -0.93204925       5.48785044
Bi       0.11226333      -0.14087249      -0.09349590       2.37641543      -6.09693955      -0.42941710
Bi       4.42081503       4.33056523      -0.01769286      -2.10376605      -2.67239115      -0.10530339
Bi       4.53430827       0.06130780       4.32569226      -0.68858795      -0.92670511      -1.34070709
Bi       0.22425778       4.46249240       4.12818010       1.72089300      -0.12558017      -5.80737052
O        2.66760593       4.53378305       3.96208934       1.71619531      -1.15613925       1.44577552
O        6.65304243       4.45286093       4.56854448      -0.42209259       0.11480828       0.11278391
O        4.57588481       2.42934878       4.75186545       0.50576348       0.57186707      -0.77128370
O        4.65639936       6.52763703       4.06804256       0.52137197       1.17789915      -0.60028053
O        4.84438674       4.18224292       2.47486891      -0.52643037       0.82678130      -0.16998052
O        4.13169663       4.66952998       6.49778433       0.54029828      -0.13416924      -0.69915739
O        6.88094217       0.05272497       4.20240607       0.25214786      -0.52584065      -1.03557305
O        2.32399439      -0.23811255       4.46399683      -1.21573544      -0.44904601       1.15496604
O        0.10728872       6.54952908       3.87940901      -0.11652178       0.59872095      -0.33171817
O        0.42295679       1.90029261       4.28642048      -0.77603797      -0.04653614      -0.36395775
O        0.26628275       0.08032594       2.15685320      -0.05507294       0.24149480       0.04219027
O        0.00937363      -0.25284291       6.17190651       0.73883763       0.60749303       0.32069445
O        7.00196869       4.56589270      -0.60305359       0.02354933       0.46421262       1.02714745
O        2.21218924       4.10660910       0.41700289       0.85654000       0.37878459       0.05405798
O        0.13882800       2.26814197      -0.07662522      -0.38084230      -0.75094091       0.65993674
O        0.49438751       6.18617284       0.22873860      -1.09479801       1.50107927       0.08074033
O        0.70324088       4.29150003       6.71745453      -1.03872674       0.04956110       0.13830303
O       -0.30218719       4.07608580       2.04501164       0.02562719       0.37560095      -0.22231919
O        2.61145485       0.12270257      -0.07019300       0.92378071       0.22684693      -0.45434530
O        6.59249906      -0.35444201       0.05471138      -0.62515927       1.29211880      -0.72735448
O        4.38551272       6.77025049       0.35215005       0.59436997       0.85114317      -0.16773781
O        4.90029977       2.01248281      -0.37149138      -0.92360442      -0.12162441      -2.53261719
O        4.80022700      -0.25991574       6.71128266       1.23275484      -1.06638187       0.08901809
O        4.59342135       0.54194944       1.87914342      -0.29148279      -0.17878303       1.28865384
40
Lattice="8.691417085929421 4.979382245803516e-19 9.616817014047946e-19 5.441005628849337e-18 8.691417085929741 -2.706250001175394e-13 1.2875106470988496e-17 -7.201332947015692e-14 8.691417085928915" Properties=species:S:1:pos:R:3:momenta:R:3 group=ta1_test x=1.0 dopant=Ta pbc="T T T"
Ba       2.16620368       2.15703267       2.17818712       2.33702625      -1.08925909      -0.31788378
Ba       6.68951461       6.57566338       6.30204992       0.07814452       1.60142180      -1.89167338
Ba       6.65297345       6.40854538       1.99721690       5.93631581       3.99761460       1.65175428
Ba       2.46182009       2.22951232       6.66417584       0.38589259       1.85947212      -2.99797493
Ba       6.85797609       2.30409921       6.54135823       3.32302805      -0.40282683       1.92494509
Ba       2.42938553       6.57544854       2.24236601      -0.87885634       0.67940099      -0.20586882
Ba       2.26538696       6.61385866       6.27286128       0.30822244      -1.57154954       1.08619697
Ba       6.72900084       2.08223453       2.30611035       3.82435891      -1.67087595      -4.25023639
Ta       4.56233904       4.36578988       4.41167430       3.11272822      -1.60408022       1.80821552
Ta       0.19624783       0.03873034       4.21573613       2.10912020       2.39047367       5.32823036
Ta       0.18460979       4.35919630      -0.14009641      -3.47566682       3.56514653       1.20614838
Ta       4.59126735       0.02733648       0.07505207      -2.65231511      -3.88120715       2.13021444
Bi       0.14116081      -0.20229356      -0.08121955       2.25836807       0.19462875       1.64415937
Bi       4.42180910       4.29625348      -0.04444707       1.24996984      -1.02205197      -1.12752294
Bi       4.53182153       0.03599272       4.34265670       1.33355624      -2.80925522       1.11389327
Bi       0.22790751       4.44206481       4.02461082      -0.97333944      -2.64342903      -5.16790634
O        2.42893847       4.31646086       4.13493380      -0.13336616       0.07683389      -0.18256151
O        6.53272047       4.38276934       4.66111239      -1.65066447      -0.33712621       0.42450808
O        4.68507209       2.40687604       4.53531118      -0.00056596      -1.87378382      -1.06623157
O        4.63908113       6.42328554       4.01882177      -0.82647267      -0.68993952       0.16865349
O        4.71678850       4.23929206       2.25192000      -0.49864603      -0.38920612      -0.43952313
O        4.30894831       4.68232385       6.24425703       0.20286158       0.65203536       0.17382830
O        6.79933089       0.00956426       3.95350382      -1.03220478      -0.23702466      -0.21296803
O        2.15365460      -0.23124410       4.30637543       0.80428969       1.15934542      -1.58486727
O        0.18029417       6.68098261       3.94151533       0.17594420       0.33385444       0.71553231
O        0.20806587       2.06403248       4.24870255      -0.78804500      -0.24419391       0.08009606
O        0.41940565       0.10103811       2.18696395       1.15492881      -0.21257951      -0.39580603
O        0.08880926      -0.22012006       6.19325672      -0.78050375      -0.14909313       0.10166904
O        6.96259175       4.50136098      -0.28681769      -1.64156170       0.08474119       0.43843326
O        2.25205459       4.07758924       0.32421508      -0.86474947      -0.02136150      -0.68965870
O        0.04263814       2.39168657      -0.15790461      -0.25268139       0.84635223      -1.14208134
O        0.33870444       6.28814713       0.19252397       0.11624976       0.28800612      -0.40464821
O        0.61528461       4.35904001       6.64956863      -0.07176922       1.04966079      -0.12095027
O       -0.04428882       4.16147568       1.90872859       1.71152437       0.31758769      -0.50520850
O        2.67302889       0.17971576      -0.27184627      -0.46742933       0.08080310      -0.59976080
O        6.63078452      -0.00128911       0.10773674      -0.43490116       1.65868816       1.15501900
O        4.48199285       6.76084255       0.27307090       0.17926787       0.68211402      -0.24577930
O        4.61125229       2.04937521      -0.61166217      -0.61451843      -0.14060613       1.09576828
O        4.77602720      -0.37164986       6.56933897      -1.23974603       0.33694011      -0.58306327
O        4.41887231       0.35846757       1.94397988      -0.96287833      -0.50490838      -1.50938773
