10
Lattice="0.0 4.073946018306739 4.073946018306739 4.073946018306739 0.0 4.073946018306739 4.073946018306739 4.073946018306739 0.0" Properties=species:S:1:pos:R:3 group=strain pbc="T T T"
Ba       2.03697301       2.03697301       2.03697301
Ba       6.11091903       6.11091903       6.11091903
V        4.07394602       4.07394602       4.07394602
Bi       0.00000000       0.00000000       0.00000000
O        2.23407050       4.07394602       4.07394602
O        5.91382154       4.07394602       4.07394602
O        4.07394602       2.23407050       4.07394602
O        4.07394602       5.91382154       4.07394602
O        4.07394602       4.07394602       2.23407050
O        4.07394602       4.07394602       5.91382154
10
Lattice="0.0 4.158819893688129 4.158819893688129 4.158819893688129 0.0 4.158819893688129 4.158819893688129 4.158819893688129 0.0" Properties=species:S:1:pos:R:3 group=strain pbc="T T T"
Ba       2.07940995       2.07940995       2.07940995
Ba       6.23822984       6.23822984       6.23822984
V        4.15881989       4.15881989       4.15881989
Bi       0.00000000       0.00000000       0.00000000
O        2.28061364       4.15881989       4.15881989
O        6.03702615       4.15881989       4.15881989
O        4.15881989       2.28061364       4.15881989
O        4.15881989       6.03702615       4.15881989
O        4.15881989       4.15881989       2.28061364
O        4.15881989       4.15881989       6.03702615
10
Lattice="0.0 4.24369376906952 4.24369376906952 4.24369376906952 0.0 4.24369376906952 4.24369376906952 4.24369376906952 0.0" Properties=species:S:1:pos:R:3 group=strain pbe_u_geometry=T pbc="T T T"
Ba       2.12184688       2.12184688       2.12184688
Ba       6.36554065       6.36554065       6.36554065
V        4.24369377       4.24369377       4.24369377
Bi       0.00000000       0.00000000       0.00000000
O        2.32715677       4.24369377       4.24369377
O        6.16023077       4.24369377       4.24369377
O        4.24369377       2.32715677       4.24369377
O        4.24369377       6.16023077       4.24369377
O        4.24369377       4.24369377       2.32715677
O        4.24369377       4.24369377       6.16023077
10
Lattice="0.0 4.32856764445091 4.32856764445091 4.32856764445091 0.0 4.32856764445091 4.32856764445091 4.32856764445091 0.0" Properties=species:S:1:pos:R:3 group=strain pbc="T T T"
Ba       2.16428382       2.16428382       2.16428382
Ba       6.49285147       6.49285147       6.49285147
V        4.32856764       4.32856764       4.32856764
Bi       0.00000000       0.00000000       0.00000000
O        2.37369991       4.32856764       4.32856764
O        6.28343538       4.32856764       4.32856764
O        4.32856764       2.37369991       4.32856764
O        4.32856764       6.28343538       4.32856764
O        4.32856764       4.32856764       2.37369991
O        4.32856764       4.32856764       6.28343538
10
Lattice="0.0 4.4134415198323005 4.4134415198323005 4.4134415198323005 0.0 4.4134415198323005 4.4134415198323005 4.4134415198323005 0.0" Properties=species:S:1:pos:R:3 group=strain pbc="T T T"
Ba       2.20672076       2.20672076       2.20672076
Ba       6.62016228       6.62016228       6.62016228
V        4.41344152       4.41344152       4.41344152
Bi       0.00000000       0.00000000       0.00000000
O        2.42024304       4.41344152       4.41344152
O        6.40664000       4.41344152       4.41344152
O        4.41344152       2.42024304       4.41344152
O        4.41344152       6.40664000       4.41344152
O        4.41344152       4.41344152       2.42024304
O        4.41344152       4.41344152       6.40664000
10
Lattice="0.0 4.201256831378824 4.201256831378824 4.32856764445091 0.0 4.201256831378824 4.32856764445091 4.201256831378824 0.0" Properties=species:S:1:pos:R:3 group=strain pbc="T T T"
Ba       2.16428382       2.10062842       2.10062842
Ba       6.49285147       6.30188525       6.30188525
V        4.32856764       4.20125683       4.20125683
Bi       0.00000000       0.00000000       0.00000000
O        2.37369991       4.20125683       4.20125683
O        6.28343538       4.20125683       4.20125683
O        4.32856764       2.30388520       4.20125683
O        4.32856764       6.09862846       4.20125683
O        4.32856764       4.20125683       2.30388520
O        4.32856764       4.20125683       6.09862846
10
Lattice="0.06365540653604279 4.24369376906952 4.24369376906952 4.24369376906952 0.06365540653604279 4.24369376906952 4.307349175605562 4.307349175605562 0.0" Properties=species:S:1:pos:R:3 group=strain pbc="T T T"
Ba       2.15367459       2.15367459       2.12184688
Ba       6.46102376       6.46102376       6.36554065
V        4.30734918       4.30734918       4.24369377
Bi       0.00000000       0.00000000       0.00000000
O        2.39081218       4.27860112       4.24369377
O        6.22388617       4.33609723       4.24369377
O        4.27860112       2.39081218       4.24369377
O        4.33609723       6.22388617       4.24369377
O        4.30734918       4.30734918       2.32715677
O        4.30734918       4.30734918       6.16023077
10
Lattice="0.08487387538139039 4.24369376906952 4.24369376906952 4.32856764445091 0.0 4.32856764445091 4.24369376906952 4.24369376906952 0.08487387538139039" Properties=species:S:1:pos:R:3 group=strain pbc="T T T"
Ba       2.16428382       2.12184688       2.16428382
Ba       6.49285147       6.36554065       6.49285147
V        4.32856764       4.24369377       4.32856764
Bi       0.00000000       0.00000000       0.00000000
O        2.41203065       4.24369377       4.29023690
O        6.24510464       4.24369377       4.36689838
O        4.32856764       2.32715677       4.32856764
O        4.32856764       6.16023077       4.32856764
O        4.29023690       4.24369377       2.41203065
O        4.36689838       4.24369377       6.24510464
10
Lattice="0.0 4.073946018306739 4.073946018306739 4.073946018306739 0.0 4.073946018306739 4.073946018306739 4.073946018306739 0.0" Properties=species:S:1:pos:R:3 group=strain pbc="T T T"
Ba       2.03799879       2.07776544       2.07371464
Ba       6.09560982       6.10197994       6.09509750
V        4.09103781       4.07226409       4.09635259
Bi      -0.05541974       0.04699646      -0.00289296
O        2.25448185       4.06984903       4.06257306
O        5.92771484       4.09868142       4.06787012
O        4.06936243       2.25464146       4.04783580
O        4.02851451       5.92567099       4.05382904
O        4.01633580       4.04952441       2.22004257
O        4.03814994       4.02917210       5.91492067
10
Lattice="0.0 4.158819893688129 4.158819893688129 4.158819893688129 0.0 4.158819893688129 4.158819893688129 4.158819893688129 0.0" Properties=species:S:1:pos:R:3 group=strain pbc="T T T"
Ba       2.10632742       2.07241598       2.05710207
Ba       6.24977965       6.25974691       6.22922952
V        4.17515993       4.19010616       4.15261120
Bi      -0.02440547       0.01042952       0.00742637
O        2.31357802       4.12028247       4.13897151
O        6.01188114       4.10679945       4.16261293
O        4.17465402       2.25844994       4.20038931
O        4.18347762       6.05584745       4.17087111
O        4.18748998       4.11886050       2.29903153
O        4.17690320       4.10578834       6.04743705
10
Lattice="0.0 4.24369376906952 4.24369376906952 4.24369376906952 0.0 4.24369376906952 4.24369376906952 4.24369376906952 0.0" Properties=species:S:1:pos:R:3 group=strain pbc="T T T"
Ba       2.11433424       2.14529257       2.10867502
Ba       6.36499343       6.37582620       6.33925280
V        4.26165167       4.24054487       4.25846825
Bi      -0.01565513       0.03258605       0.01815606
O        2.32181602       4.26265248       4.28148642
O        6.21396603       4.19648648       4.27018772
O        4.25764582       2.32434095       4.21349382
O        4.28140943       6.12237863       4.26070213
O        4.28274981       4.19570369       2.31808124
O        4.20441726       4.25101539       6.20566202
10
Lattice="0.0 4.32856764445091 4.32856764445091 4.32856764445091 0.0 4.32856764445091 4.32856764445091 4.32856764445091 0.0" Properties=species:S:1:pos:R:3 group=strain pbc="T T T"
Ba       2.22499050       2.11094039       2.14703535
Ba       6.51395782       6.54023265       6.50548779
V        4.30618308       4.33748159       4.32806907
Bi      -0.00611222      -0.02203413       0.01161779
O        2.38293630       4.32577812       4.32191701
O        6.24488788       4.31398237       4.36476113
O        4.32285090       2.33050899       4.36860093
O        4.34447561       6.34667799       4.33044301
O        4.31472611       4.28513830       2.41341506
O        4.40565299       4.30393960       6.26402275
10
Lattice="0.0 4.4134415198323005 4.4134415198323005 4.4134415198323005 0.0 4.4134415198323005 4.4134415198323005 4.4134415198323005 0.0" Properties=species:S:1:pos:R:3 group=strain pbc="T T T"
Ba       2.22460642       2.18181040       2.19860401
Ba       6.60966715       6.62592105       6.65300683
V        4.41410355       4.44100882       4.40084485
Bi       0.00983396      -0.06414677      -0.04349844
O        2.44412045       4.39573704       4.43083897
O        6.42291032       4.45310989       4.43779729
O        4.44395126       2.41689290       4.39249296
O        4.39149476       6.39199868       4.37954665
O        4.39701821       4.41066445       2.42779140
O        4.40327480       4.35573103       6.40447151
10
Lattice="0.0 4.201256831378824 4.201256831378824 4.32856764445091 0.0 4.201256831378824 4.32856764445091 4.201256831378824 0.0" Properties=species:S:1:pos:R:3 group=strain pbc="T T T"
Ba       2.17104420       2.13316268       2.11796433
Ba       6.47354465       6.28017195       6.36220317
V        4.35126678       4.25620003       4.26514017
Bi      -0.02454251       0.01155808       0.01374501
O        2.39048827       4.21751390       4.20731847
O        6.28865926       4.15618183       4.19629480
O        4.30613905       2.30766782       4.18723044
O        4.34712327       6.12320073       4.21051760
O        4.33805269       4.20404523       2.29045127
O        4.32363261       4.18638745       6.11026807
10
Lattice="0.06365540653604279 4.24369376906952 4.24369376906952 4.24369376906952 0.06365540653604279 4.24369376906952 4.307349175605562 4.307349175605562 0.0" Properties=species:S:1:pos:R:3 group=strain pbc="T T T"
Ba       2.15409799       2.17111332       2.08198744
Ba       6.48765713       6.43814288       6.34351219
V        4.30142589       4.29044764       4.25242752
Bi      -0.01722494      -0.03208433      -0.02537408
O        2.43017168       4.27992887       4.20866786
O        6.22413749       4.28941884       4.29738077
O        4.23286678       2.40517476       4.26000254
O        4.29259700       6.23289447       4.27360893
O        4.32137643       4.31517966       2.35562967
O        4.31217631       4.31744193       6.15642942
10
Lattice="0.08487387538139039 4.24369376906952 4.24369376906952 4.32856764445091 0.0 4.32856764445091 4.24369376906952 4.24369376906952 0.08487387538139039" Properties=species:S:1:pos:R:3 group=strain pbc="T T T"
Ba       2.18323799       2.09360536       2.18803672
Ba       6.47769242       6.33282105       6.50380894
V        4.37935631       4.27254412       4.31309815
Bi       0.02094179      -0.01362627      -0.00372058
O        2.41471650       4.17417722       4.29598535
O        6.21421637       4.22277181       4.32266667
O        4.28307090       2.29885884       4.35333556
O        4.37854888       6.15947461       4.36132137
O        4.28231749       4.18633458       2.41652815
O        4.38026783       4.23083527       6.25417137
40
Lattice="8.48738753813904 0.0 0.0 0.0 8.48738753813904 0.0 0.0 0.0 8.48738753813904" Properties=species:S:1:pos:R:3:momenta:R:3 group=md300 pbc="T T T"
Ba       2.19538002       2.16701738       1.97590956       0.51249715       1.58122171      -1.29765376
Ba       6.34166862       6.34380260       6.52533059      -3.36879506      -0.34909171       5.59167016
Ba       6.29630704       6.26279939       2.13386899       0.59369476      -2.00997282      -0.23998457
Ba       2.02039851       1.98593133       6.15323246       0.58012861      -0.40169956       1.86197851
Ba       6.36547626       2.09741936       6.36008644      -2.03255491       1.70033758       0.20677975
Ba       2.14012481       6.29235402       2.08694968       1.22326707      -2.06200300      -3.38043076
Ba       2.03365038       6.19827563       6.41673230      -2.81917176      -0.26860275       0.84355065
Ba       6.38495911       2.08755724       2.14103505      -3.39438547       0.32705508      -2.12946013
V        4.16485015       4.21584852       4.23308540       2.76059002       0.23477565       0.28021412
V       -0.04489482      -0.02566826       4.05286297       0.15290127       2.25893535       0.62126456
V       -0.01359862       4.08310953      -0.05982629       0.87273454       1.62146193       0.35470485
V        4.19029808      -0.02087983      -0.04917347      -0.78060173      -0.93774335       0.05021058
Bi       0.05985675      -0.06817601      -0.13518111       2.28456376      -0.36853356       2.60530274
Bi       4.32008535       4.19322974      -0.00040286       1.92962155      -3.37398299      -0.74582509
Bi       4.38848586      -0.09718447       4.12021192       1.05685398      -0.36848389      -1.83947445
Bi      -0.10059161       4.28059538       4.14392311       0.57628418       2.68779285      -3.82051274
O        2.29185001       3.95305580       3.93307348      -0.32453732       0.86529350      -0.36580633
O        6.04440431       4.39263967       4.34358721       0.49688416      -0.40698419      -0.19368171
O        4.36167948       2.07408656       4.55930318       0.26239142      -0.49313664       0.08155125
O        4.06462909       6.05949010       4.00890321      -0.25281725      -0.31614632      -0.30607573
O        4.35421167       3.98652874       2.13378961      -1.63995968       0.08713696      -0.64170863
O        3.96929448       4.37665749       6.03669914       1.01005857       0.45809183       1.02257444
O        6.48395805      -0.28670677       4.71268963      -0.54714707       0.47158472      -0.60683486
O        1.83431307       0.12783379       3.97113607      -0.43453351      -0.65768627      -0.81704090
O        0.13266853       6.46752962       4.29982045       0.11325534       0.38307393      -0.94401748
O       -0.41624451       1.77752789       4.14700304       0.12493625       0.11390867      -0.26506998
O       -0.42470313      -0.15277933       2.32984370      -0.01752532      -0.38915358       0.39943770
O        0.23710564       0.15334613       6.17820535       0.56050187      -0.15064717       0.40414496
O        6.44703842       4.21912966      -0.03506846       1.46783335      -0.25743924      -0.46349483
O        1.77855225       4.23557104       0.24240840      -0.01915858      -0.57852654       0.27849948
O       -0.20222811       2.36482988       0.19969192      -0.65370517      -0.48678481       0.61424488
O       -0.18902687       6.25724826      -0.33769893      -0.43261152       0.03285416       1.03831423
O        0.02084326       3.96874030       6.60855977      -0.08320628      -0.27655265       0.14708076
O       -0.17127871       4.33069459       2.02510596       0.66615828      -0.71691767      -0.01682364
O        2.10920830      -0.05112405       0.35288193       0.25359100       0.35541082       0.04166398
O        5.94872842      -0.09843840      -0.25839283       0.04739813       0.35530301      -0.32259541
O        4.08155255       6.47585260       0.20417070      -1.39794469       0.25956715      -0.24862710
O        4.04632961       1.74797267      -0.14490234      -0.39782162       0.75531134       0.35554015
O        3.96073709      -0.26085603       6.63699497       0.46810927      -0.96414539       0.50905666
O        4.55313712       0.32486589       2.05452661       0.05842452      -0.73313211      -0.17664845
40
Lattice="8.48738753813904 0.0 0.0 0.0 8.48738753813904 0.0 0.0 0.0 8.48738753813904" Properties=species:S:1:pos:R:3:momenta:R:3 group=md300 pbc="T T T"
Ba       2.20464388       2.20984779       1.97847612       0.63486270       0.19859778       1.14463864
Ba       6.22463620       6.31488203       6.64456337      -2.07184896      -1.10533306       0.64926601
Ba       6.30549006       6.21099623       2.10388431      -0.13558829      -0.58429263      -0.92428262
Ba       2.08630940       1.99565652       6.18711959       3.36741700       0.95811083      -0.12515800
Ba       6.31663025       2.12913826       6.33668314      -0.76871708      -0.50462226      -1.21917732
Ba       2.12815834       6.21522192       1.98889047      -0.82773053      -1.74340013      -2.51982348
Ba       1.94627296       6.21904382       6.44508551      -2.33521427       0.71812947       0.16968459
Ba       6.29692528       2.11754468       2.07318778      -1.87760172       0.70054150      -1.10576606
V        4.23672740       4.28641932       4.27661512      -0.42211504      -0.11105335      -0.92520568
V       -0.04438990       0.05072434       4.06099464      -0.36895215      -0.41477764      -0.63545669
V        0.03699010       4.12089454      -0.03496569       0.88304848      -0.12008243      -0.37093602
V        4.16832655      -0.13335730      -0.14988177       0.48650867      -1.26280882       0.01677805
Bi       0.08119221      -0.07091023      -0.04019638       0.57306576       0.17483888       4.98539984
Bi       4.34069477       4.12254520      -0.01523047      -1.62107555      -2.53123126       1.46179171
Bi       4.36228518      -0.07081514       4.12886961      -3.82993024       2.69891966       1.12150104
Bi      -0.04351900       4.33567270       4.10100094       3.80289320       1.88949470      -0.13959481
O        2.27953882       4.05581801       4.30643940       0.02794975      -0.46003822       1.98106653
O        6.13628638       4.24705464       4.08688391      -0.17011842      -0.06978582      -0.76620916
O        4.35519139       2.21080141       4.27877352      -0.28214131      -0.02165763      -1.42514953
O        4.12266367       6.04575726       3.87646332       1.02939678       1.32420485       0.55962203
O        4.22923140       3.96363440       2.21446613       0.58154703      -0.37048774      -0.63359504
O        4.28551254       4.36887213       6.03871635       0.88467366       0.09800078       0.21999792
O        6.44719400      -0.30985457       4.49361757       0.38789061      -0.34195740       0.15362014
O        1.77696628       0.14781355       3.85716708       0.60537318       0.43331290       0.11705082
O        0.05622126       6.41825381       4.26644633      -0.53231175       0.13462387       0.69102260
O       -0.22900023       1.87072656       4.30137227       0.06208374      -0.47205300       0.94878412
O       -0.50983538      -0.13657338       2.39057902       0.04666821       0.77042175       0.23022871
O        0.24504811      -0.08067617       6.24549931      -0.54599317      -0.98518140      -0.72530441
O        6.42079151       4.26190956      -0.13061771      -0.42688884      -0.48744510       0.11958179
O        1.89764218       4.18607206      -0.02610407       0.59541317      -0.17211614      -0.82597427
O       -0.04723856       2.21034597       0.24117617       1.03157751       0.35081154      -0.23069550
O        0.05005963       6.03772315       0.08606553       0.90528200      -0.56272587       0.54906748
O        0.11020046       4.01823168       6.66301258      -0.47764629       0.28620014      -0.30912958
O       -0.18604027       4.30668270       1.96258600      -0.26720722      -0.15856197      -0.40658495
O        2.27974909       0.02126003       0.21520533      -0.27232828       0.31257946      -0.60231313
O        5.97266233      -0.00692958      -0.21284692      -0.70871697      -0.07064499      -0.43868500
O        4.08761495       6.44297707       0.13551386       1.45787766       0.05491361      -0.59358219
O        4.10195270       1.94170713      -0.24059498       0.72434517      -0.44649416      -1.00560578
O        3.87207818      -0.40782506       6.50483138      -0.17697188       0.69007594      -1.15075226
O        4.43576165      -0.11853212       1.99200793      -0.44356933      -0.62645549       0.58754070
40
Lattice="8.48738753813904 0.0 0.0 0.0 8.48738753813904 0.0 0.0 0.0 8.48738753813904" Properties=species:S:1:pos:R:3:momenta:R:3 group=md300 pbc="T T T"
Ba       2.23132040       2.15837679       2.03282110       0.55979323      -2.39547288       2.80900765
Ba       6.21800230       6.32827656       6.54041044       1.64066672       1.07135526      -4.95267799
Ba       6.30123231       6.18458182       2.10619773       0.25447119      -0.47866177       0.47300054
Ba       2.17701698       2.00932840       6.22824335       1.70747194      -0.02086557       2.44204449
Ba       6.33862975       2.10401155       6.25115463       1.38916878      -0.91632088      -2.15499035
Ba       2.11616744       6.19829748       1.95603186       0.35755236       0.19569967      -0.04548667
Ba       1.90347460       6.24750380       6.38775335      -0.23856719       1.89889873      -3.46631595
Ba       6.25959407       2.12987158       2.02808940      -0.15052548      -0.01879868      -1.51389577
V        4.28505818       4.29675245       4.29359218       0.78588618      -0.67365172       0.79229193
V       -0.03549161      -0.01247458       4.17124224      -0.02095353      -0.99731757       1.32344125
V        0.07702915       4.08802751      -0.12632113      -1.67489261      -0.84417378      -1.88540574
V        4.24944430      -0.17162796      -0.14448183       1.85773028       0.91145916       1.15308563
Bi       0.07595180      -0.05872251       0.03044499      -1.48721670       0.33607419       0.57794544
Bi       4.23414399       4.05252999      -0.02834364      -4.38694100      -3.28099775      -2.95819349
Bi       4.27276025      -0.01495755       4.17740441      -3.89446367       2.02912080       1.40440613
Bi       0.01815618       4.34993974       4.12316341       1.69419541      -0.70274312       1.76696132
O        2.40679268       4.17304178       4.31523630      -0.35702236       0.25731393      -0.92599430
O        6.23948990       4.21299241       4.00429729       0.92063847       0.29046958      -0.30201501
O        4.26243225       2.19683372       4.13779544      -0.21632502      -0.33183865       0.47138545
O        4.11222928       6.03975309       4.02895483      -0.05267049       0.50838123      -0.19179849
O        4.10619276       4.17211646       2.14850508      -1.07344628       1.27734173       0.57552559
O        4.53893258       4.29088501       6.01821981       0.42104458      -0.76918203       0.63273858
O        6.32314932      -0.26597807       4.55130251      -0.71128305       0.33250340      -0.21732990
O        1.72096282       0.07676163       4.00010226       0.26798468      -0.59164243       0.72949616
O        0.15039917       6.44590824       4.19513277       0.38191958      -0.30595720      -1.18604989
O       -0.30701658       1.75969953       4.43838703       0.11411639      -0.08651273      -0.01793895
O       -0.36072092       0.05855291       2.36579721       0.23092986      -0.02405503       1.38478769
O        0.13515937      -0.23282003       6.39392141      -0.06155783       0.18339689       0.06563426
O        6.55409528       4.04445060       0.07413796      -0.06386386      -0.30645978       1.52416845
O        1.93002919       4.14476023      -0.03248403      -0.33770799       0.20610894      -0.30861574
O        0.10811580       2.27454003      -0.02270054       0.09261694      -0.56252115      -1.02159779
O        0.10905719       6.13547547       0.05820983      -0.58929065       0.25883574       0.33142224
O       -0.21009014       4.18425518       6.56790112       0.09064699       1.17386362       0.07537020
O        0.13905366       4.07313199       2.02654401       1.84895482      -0.48371683       0.53496794
O        2.23273204      -0.11557121       0.25787851       0.78810268      -0.72706898       0.71275194
O        6.10596138      -0.03740257      -0.31644661       0.81747719      -0.25402853      -0.06138162
O        4.30365211       6.46652656      -0.02036713      -0.26852014      -0.26330190      -0.02123078
O        4.19606677       1.91350831      -0.28275207      -0.43443332       0.88542864       0.95703456
O        3.82382434      -0.18831719       6.59259726      -0.61003056       0.47786236      -0.03413369
O        4.37880518       0.01505870       1.79694509      -0.02202942       1.08290174      -0.71636240
40
Lattice="8.48738753813904 0.0 0.0 0.0 8.48738753813904 0.0 0.0 0.0 8.48738753813904" Properties=species:S:1:pos:R:3:momenta:R:3 group=md300 pbc="T T T"
Ba       2.22865540       2.03919803       2.14028130      -0.96005957      -3.16822452       3.42669361
Ba       6.33206122       6.36784144       6.34071635       3.93914720       0.87561570      -5.41852906
Ba       6.29945146       6.20842755       2.10998821       0.08796105       1.27794570       0.46744064
Ba       2.18489807       1.99974638       6.32504186      -0.70661615      -0.76950409       3.16909241
Ba       6.39841104       2.06929347       6.20007337       1.44366818      -1.50452351      -1.11228089
Ba       2.13473052       6.20544800       1.97392092       0.20626118      -0.39996018       0.60908710
Ba       1.93715529       6.34023167       6.26907488       2.67142075       3.14765142      -3.00996090
Ba       6.27021708       2.10998128       2.00198380       0.93023448      -0.85949133       0.43240768
V        4.23166189       4.26181237       4.26161905      -0.22160558      -1.24840054      -0.01360030
V       -0.00718979       0.02539263       4.28865855      -0.77909034       1.26570045       0.42246690
V       -0.11528476       4.08147754      -0.12928200      -1.47840934       1.82464144       1.53219177
V        4.35247691      -0.09746961       0.02935085       0.45822904       2.28047555       0.91196052
Bi       0.03443634      -0.09681816       0.02234949      -2.59422996      -4.06574733      -0.74534356
Bi       4.15481317       4.04667035      -0.06534411      -2.50932829       1.46338125      -1.47283636
Bi       4.17137590       0.02062773       4.21203956      -2.92913465      -0.06500773       2.75351739
Bi       0.04631937       4.27536637       4.14196994       0.75753206      -4.45533645      -0.98171616
O        2.45936991       3.99512694       4.50882459      -0.38109668      -0.11556979       1.19272795
O        6.17031667       4.24651767       3.91546517      -0.12876883      -0.32645565      -0.46385866
O        4.44743496       2.24448010       4.25647097       0.94913589      -0.60083133      -0.20843007
O        4.25820938       6.02420177       4.21304499      -0.05494576       0.44301541       0.70998501
O        4.06108441       4.10504186       2.12680690       0.06861168      -0.76948245       0.38828607
O        4.53467914       4.16163660       6.04978861       0.41164450       0.76088037      -0.68944395
O        6.45793091      -0.24655448       4.60614729       0.62702748       0.83431610       0.74857912
O        1.84720778      -0.03468761       4.18742876       0.06172288      -0.11648479      -0.75516426
O        0.04613007       6.38358269       3.94433829      -0.38537018      -0.63850382       0.00304534
O       -0.03811046       1.82462791       4.52855588       1.09205129       0.63366937      -0.10273226
O       -0.44088156       0.04160769       2.38455885       0.48460012       0.79435215      -0.95010223
O        0.13384339      -0.22730358       6.25450827      -0.21184665      -0.65843648      -0.26939371
O        6.71921191       4.10555913       0.40437234       0.16366190       0.35405436      -0.08273006
O        1.97350353       4.28543166      -0.41685072       1.19919953       0.65061134      -1.17216408
O        0.03305621       2.32278493      -0.33611607      -0.52256250       0.65404550      -0.38192745
O       -0.22349358       6.14876841       0.19726964      -0.74634626       0.51524873       0.62790928
O       -0.29087513       4.47124432       6.56948305      -1.05942496       0.55597201      -0.05321097
O        0.49782136       3.94265889       1.98252832       0.33190718      -0.49116128      -0.67549859
O        2.14716708      -0.12643454       0.30342217      -0.89309335       0.56872800      -0.50154279
O        6.05413825       0.07419837      -0.42006518      -0.34960472       0.80172169      -0.23518182
O        4.25585765       6.61436250       0.00381874      -0.14429014      -0.31307158       0.63632565
O        4.09283723       1.90504084      -0.01244757      -0.32012727       0.13488712       0.40603470
O        3.93408023      -0.00475363       6.40174821       0.91428156       0.29034984      -0.47279601
O        4.57029127       0.12945995       1.81963318       0.18754466      -1.06420118       0.20312563
40
Lattice="8.48738753813904 0.0 0.0 0.0 8.48738753813904 0.0 0.0 0.0 8.48738753813904" Properties=species:S:1:pos:R:3:momenta:R:3 group=md300 pbc="T T T"
Ba       2.17924528       1.90509802       2.23594931      -1.48655567      -3.78592541       1.35018871
Ba       6.42442193       6.39040354       6.16624545       1.39834753       0.53833968      -2.94986490
Ba       6.32513896       6.27863757       2.16593350       1.09130967       1.84609638       1.95010679
Ba       2.12284029       1.99747288       6.42214690      -3.03610073       0.63362106       2.51327550
Ba       6.42882584       2.02291068       6.19338413       0.69895177       0.01492873       0.90257213
Ba       2.11136166       6.21998696       1.99885784      -1.76987964       0.95785676       0.96358557
Ba       2.10411664       6.37995090       6.18497514       6.22664433      -0.98271782      -1.96414191
Ba       6.32800659       2.04961587       2.07152282       1.93559953      -2.10762602       2.30657403
V        4.29141343       4.22756240       4.26612907      -0.76881351       0.73618019      -1.06423045
V       -0.11019739       0.05815015       4.17108639       0.83471957      -1.11941570      -2.63438103
V       -0.14504264       4.21793910      -0.05007138      -0.60134780      -0.20224141      -0.05765102
V        4.27643223      -0.03187652       0.02265344      -1.25200282      -0.72201525       0.13322863
Bi      -0.04271506      -0.16672067       0.01603841      -2.10375683      -1.25494734      -0.44700407
Bi       4.11473078       4.14402030      -0.07137586      -1.40157723       5.57451791       0.84785089
Bi       4.14120127      -0.01686349       4.29241577      -0.32776610      -3.18605449       2.75427630
Bi       0.05583746       4.17775574       4.11468706       0.38217774      -2.87539098      -1.84569823
O        2.36684608       4.09683026       4.51838595       0.53501977       0.02814680      -0.01777388
O        6.26150662       4.11601263       3.76428845      -0.10881143       0.24493909       0.16287760
O        4.35853099       2.14859426       4.06912995      -1.16099790       0.63220265      -0.41243994
O        4.12404077       5.98414568       4.08968409       0.61070610      -0.91906727      -0.38642208
O        3.89972861       4.14861125       2.32891211      -0.59320212       0.71879578      -0.29798725
O        4.68156603       4.10996958       6.05779305       0.01837695      -0.95248392      -0.00657718
O        6.58804408       0.08450399       4.36396734      -1.08314711      -0.07677421      -1.69949569
O        2.02355648      -0.08448334       3.87889054       2.08471860      -0.38062914      -0.19719817
O        0.04353749       6.41852766       3.92861359      -0.44841935       0.86762062       0.09953818
O        0.09670354       1.87791241       4.48351366       0.23747177       0.43682663       0.45569451
O       -0.21303694       0.29054750       2.32064679       0.57986838       0.08860061      -0.44790006
O        0.13368509      -0.40330638       6.12802327      -0.11286945       0.83416030      -0.18658010
O        6.58400833       4.26188549       0.29867640      -0.40884304       0.66856643      -0.22103582
O        1.93438359       4.45959920      -0.47216989      -0.95935849       0.48985775       0.50787097
O        0.01521040       2.48800248      -0.35420422       0.50120939      -0.40387064       0.18678744
O       -0.10581525       6.22811400       0.32461506       0.97513319      -0.38688627       0.41663574
O       -0.28960209       4.54682528       6.58851861       0.77517881       0.71266216      -0.65457308
O        0.36358886       4.05136607       1.77070102      -1.20586480       0.92950979       0.49836289
O        2.20959289       0.00054432       0.10340005       0.14258922      -0.28245135      -0.62325063
O        6.10527261       0.26461580      -0.33028444       0.31506419       0.12040666       0.51404945
O        4.27144334       6.67080926      -0.11475399       0.83304713       0.07770883      -2.03608292
O        3.92867249       1.90964683       0.01323123      -0.16372622       0.78337047       0.10130629
O        3.96740265       0.03097456       6.44591361      -0.59765112      -0.11342021      -0.05210944
O        4.47612809      -0.14665939       1.85572597      -0.93905355       0.45449972       0.51554047
40
Lattice="8.48738753813904 0.0 0.0 0.0 8.48738753813904 0.0 0.0 0.0 8.48738753813904" Properties=species:S:1:pos:R:3:momenta:R:3 group=md300 pbc="T T T"
Ba       2.12105746       1.83912391       2.21204499      -2.00158590       0.10403830      -1.97938314
Ba       6.44191750       6.38807336       6.11682241      -0.57906222      -0.78661528      -0.77566900
Ba       6.32626575       6.33666587       2.20751183      -1.61682998       0.99372752       0.13157276
Ba       2.02974691       2.04017121       6.50910722      -1.14355748       0.84026336       2.14777601
Ba       6.47318040       2.05786490       6.23337261       0.47898792       2.11070996       1.69898815
Ba       2.03852555       6.25259222       2.03450604      -1.92838871       1.36176801       1.64526767
Ba       2.30542880       6.33399010       6.13976479       4.97776664      -1.38770397      -0.54454647
Ba       6.34078325       2.02034752       2.11367789      -0.19990987       0.06614574       0.62949916
V        4.18232255       4.12779462       4.19093778       0.37860506      -1.98526610       1.20030995
V       -0.03664232      -0.12848405       4.11903765       1.73729845      -0.70434370       2.00430386
V       -0.17064111       4.18820568      -0.18119440       1.45594815       0.81623965      -0.95198298
V        4.19628879      -0.08057602      -0.00254327       0.03204735       0.08833265      -1.93540885
Bi      -0.06530213      -0.16786313      -0.02288027      -0.65240856       0.98732231      -2.28903176
Bi       4.11026293       4.23949552      -0.02771085       0.39237540       2.69486928       0.85779850
Bi       4.17695885      -0.05963135       4.30823024       1.75887922      -0.95392589      -1.58923612
Bi       0.04856769       4.13227336       4.09226233      -2.14937554      -2.55940233      -0.37233973
O        2.38814759       4.19139898       4.43470203      -1.13946098       1.20443245      -1.09355691
O        6.24344210       4.12880240       3.93634570       0.79627837      -0.85105850       0.11622642
O        4.14820262       2.14762892       3.97715699       0.21108656       0.58901583      -0.64294326
O        4.43820940       6.14783820       4.27434395       0.35342312       0.18232177       0.76001665
O        3.89911751       4.31694302       2.07443077       0.78412832       0.62767436       1.09639324
O        4.51342513       4.01568769       5.88612230      -0.77416523       0.24098148      -0.82820255
O        6.63276947      -0.00687421       3.97058199      -0.37414820       0.13901665      -0.29290486
O        1.91447041      -0.31729625       4.02415287      -0.51945253      -0.97045171       0.80848129
O       -0.08476907       6.54424516       3.94640567       0.03420455      -2.28691512      -0.08864476
O        0.12679515       1.97263850       4.38024292      -0.13208852       1.54131079      -1.24759922
O        0.09196567       0.28499008       2.15920311       0.55689655      -0.01143960      -0.95740489
O        0.06281723      -0.08110653       6.05587129      -0.66377713       0.30667241      -0.06585767
O        6.62488798       4.24345672       0.10080706      -0.44845755      -0.65914544      -0.49871227
O        2.04027759       4.47304811      -0.29304492      -0.34480591      -0.05160575      -0.07436620
O       -0.01936508       2.43980359      -0.13161095       0.05529207      -0.31777546       0.64997552
O       -0.09075635       6.21539636       0.30498212      -0.86574645      -0.16955858      -0.59774787
O       -0.18658325       4.50973702       6.64526442       0.44960529      -0.85162767       0.31321064
O        0.13691889       4.01123377       2.01425761       0.14867299      -0.85157233       0.04500090
O        2.23793214      -0.22678003       0.11878637      -0.02704092      -0.19125307      -0.45670290
O        6.00520841       0.24358426      -0.14195259       0.42189857       0.29349337       0.48664752
O        4.48620137       6.65079213      -0.33574703       0.01518193      -0.53960539       0.68815063
O        4.07609877       2.02487089       0.02266931       0.55400663      -0.29565052      -0.26167132
O        3.86174675       0.16238815       6.38032886       0.21982521       0.75993718       0.40558686
O        4.14895816      -0.07125946       1.79292718      -0.57267516      -0.75838770       0.93225343
40
Lattice="8.48738753813904 0.0 0.0 0.0 8.48738753813904 0.0 0.0 0.0 8.48738753813904" Properties=species:S:1:pos:R:3:momenta:R:3 group=md300 pbc="T T T"
Ba       2.03609906       1.91045870       2.08365303      -3.02358296       2.82634585      -4.96843973
Ba       6.42349647       6.33705738       6.12153691       0.48507213      -2.32334253       1.71803548
Ba       6.24575585       6.33896752       2.14439591      -2.70720861      -0.62803692      -3.46226813
Ba       2.01237888       2.08494392       6.55486584       0.41735619       0.66403577      -0.57259170
Ba       6.46796624       2.14983638       6.29099113      -0.46206299       3.39534743       1.26020839
Ba       1.99045375       6.29729004       2.08206587      -0.63119386       0.80393921       1.45241609
Ba       2.42208134       6.27320704       6.18255823       1.83609211      -2.12900680       2.90374742
Ba       6.35909958       2.00702243       2.08942469       0.80410291      -1.23201436      -1.47386405
V        4.20245664       4.06337558       4.19032744      -0.93660968       2.25445993      -0.23501838
V        0.09961027      -0.16312009       4.20843782      -0.73131870       0.09718883      -0.42000340
V       -0.08905505       4.19608313      -0.04615291       0.02888371      -0.94383163       1.00124707
V        4.24148203      -0.05870500      -0.04669441       0.72377837       0.12802363      -0.21731313
Bi      -0.05349140      -0.14107964      -0.05865601       1.43442972      -0.10366489      -0.19548390
Bi       4.11701948       4.25881193       0.02401657       1.38699720      -1.37433803       1.73479144
Bi       4.22794128      -0.10166303       4.23290669       4.27700289      -2.73902825      -2.92005945
Bi      -0.02591097       4.09980068       4.08968533      -2.93130890       0.23107371       1.31162691
O        2.43235247       4.43052209       4.15693635       1.77389568       0.04181528      -0.39329829
O        6.28940130       3.97196826       4.00468946      -1.07296941       0.27831601       0.76156181
O        4.18735830       2.23373792       3.92445292      -0.37656153      -0.49660866       0.18017177
O        4.49973576       6.31633971       4.50401215      -0.00659386       0.82838035       0.19171581
O        4.36301039       4.55841546       2.38482212       0.95026164       0.78821557       0.56534807
O        4.33606132       4.09769706       6.16654493      -0.51283748       0.05341722       0.06487028
O        6.56279907       0.04318120       4.21047795      -0.93590197       0.15137454       0.88179531
O        1.96994170      -0.23925443       4.17036297       0.27043675       1.01889623      -0.04993413
O       -0.12869308       6.47546507       3.98084199      -0.04955234       1.43850386       0.14404316
O        0.22279324       1.78632147       4.24086591       0.82100295      -1.27725729      -0.18824361
O       -0.02651268      -0.09762663       2.20698284      -0.57507460      -1.38284948       0.38841476
O       -0.10208541      -0.19546378       6.00544280       0.01865519      -0.85076632       1.48096031
O        6.59761131       3.97149326       0.01870266       0.17565263      -1.13981691       0.26329959
O        1.77161909       4.43599193      -0.22204198       0.20559988       0.73494659       0.51952784
O        0.20214472       2.32989957      -0.17682657       0.04423978      -0.90800928      -0.05678768
O       -0.35580681       6.10919350       0.15664874      -0.36262482       0.11447861      -0.67327850
O       -0.19757921       4.22754733       6.34353930      -0.60330218      -0.97649960      -0.09062527
O        0.25693282       3.98116411       1.89293573      -0.28153512       0.60189618      -0.91603158
O        2.21381858      -0.14351158      -0.22844255      -0.03958673       0.33422647      -0.84400417
O        6.06659231       0.21196590      -0.07388288      -0.38037584      -0.00469315       0.27941128
O        4.38518897       6.65970701      -0.37337337      -0.28534736       0.30593784      -0.58219810
O        3.93711194       2.01824338       0.16914138      -0.71929276       0.35880894       1.64761677
O        4.17258556       0.27120803       6.46930998       1.50137381      -0.12735002      -0.79396126
O        4.14390722      -0.32337521       1.79092841       0.17946730       0.06800062      -0.53718265
40
Lattice="8.48738753813904 0.0 0.0 0.0 8.48738753813904 0.0 0.0 0.0 8.48738753813904" Properties=species:S:1:pos:R:3:momenta:R:3 group=md300 pbc="T T T"
Ba       1.94892113       2.00717485       1.94672416      -2.22713999       2.06029103      -2.16823798
Ba       6.47264657       6.24399009       6.22143425       2.45053987      -2.91567198       3.76156328
Ba       6.21785456       6.35261905       2.02924995       1.08842299       1.17435913      -2.57485075
Ba       2.07142507       2.11340020       6.46366135       3.25759521       0.89940858      -4.55937870
Ba       6.42160408       2.22271921       6.33204424      -1.99851605      -0.04219015       0.84005361
Ba       1.95329742       6.33290524       2.10910418      -0.79155319       1.48967275       0.64683554
Ba       2.40966299       6.21334011       6.29746476      -3.87340838      -1.10128824       2.53534430
Ba       6.36095106       1.96699373       2.03200447      -0.13670332      -1.18097763      -1.58601695
V        4.30107480       4.15871739       4.20273962      -0.24601473       1.75976402       1.11738371
V        0.00234974      -0.07506030       4.22137439       0.34967437       1.26528486       0.01232132
V       -0.13442816       4.13113246      -0.01049090      -1.59675460       0.02795018      -1.18973904
V        4.25935547      -0.06883195      -0.10442510      -0.51559946      -0.21150045      -1.14082487
Bi      -0.04334896      -0.16542262      -0.08908050       0.71071970       0.22799659      -2.17720533
Bi       4.15708482       4.17417868       0.05982645       1.75176749      -3.68336006       1.23596522
Bi       4.31787419      -0.08327026       4.18443031       2.43965369       2.39796727      -0.12481058
Bi      -0.09274400       4.11447574       4.13669688       0.18563003       1.80566391       3.42030443
O        2.24827968       4.43905061       4.14517371      -1.00485304      -0.23851548       0.08838825
O        6.23598374       4.07697039       4.26920091      -1.20059221       0.29726860       0.11726652
O        4.03961228       2.42391876       3.93782488      -0.17011723      -1.29277106      -0.78771756
O        4.43797664       6.20061277       4.40303901       0.08903210       0.30572001      -0.49525296
O        4.26756732       4.55470038       2.18325804      -1.15971192      -0.65614750      -0.97634931
O        4.26911628       3.98428795       6.10091553      -0.23269981      -0.60733017      -0.76887919
O        6.62619928       0.17210106       4.18546685       1.27292663      -0.28892753      -0.25975609
O        1.83336635      -0.27543997       4.20920967      -1.03975915      -0.56792874       0.15061872
O       -0.13201290       6.32580251       4.20730704      -0.85476281      -0.89868327       0.70199672
O        0.15195720       1.81893591       4.28975143      -1.26912896       0.17669023       0.69922486
O       -0.08214268      -0.11185671       2.38607621       0.17124262       0.40276988       0.91649843
O        0.01362550      -0.38628948       6.17395225      -0.06913833       0.30841175      -0.89791221
O        6.63084633       3.75790489       0.07433205       0.42026749       0.19153631      -0.51106668
O        2.06304370       4.49103222      -0.16104668       0.12342602      -0.98950492       0.78965285
O        0.19372812       2.15999581      -0.06112567       0.74156178      -0.10753383       0.55427624
O       -0.36650915       5.92236662      -0.04210175      -0.24286662      -0.87957273      -0.56599520
O       -0.04093494       4.07127810       6.50991867       0.93369670      -0.22233281       1.40133029
O        0.08546999       4.10486717       1.81469177      -0.46457012      -0.09918838       1.16634087
O        2.28110992      -0.09693243      -0.21212270       0.65511299      -0.11962547       0.29471787
O        6.07069352       0.35433145      -0.01228940       0.88988607       0.15532258      -0.17436087
O        4.45889846       6.71393955      -0.41472089       1.07384753      -0.00257195       0.05116069
O        3.96137081       2.12057543       0.36233047       0.95740756      -0.23557717      -1.14800241
O        4.36401678       0.40060928       6.38712094      -0.54995871       0.57236939       0.57491776
O        4.09643992      -0.23226235       1.70140371      -0.18192102      -0.19199754       0.26898459
40
Lattice="8.48738753813904 0.0 0.0 0.0 8.48738753813904 0.0 0.0 0.0 8.48738753813904" Properties=species:S:1:pos:R:3:momenta:R:3 group=md300 pbc="T T T"
Ba       1.94605854       2.08441457       1.94671543       1.44331933       2.16161822       1.29549138
Ba       6.56900056       6.16724560       6.32856290       1.89963545      -1.11749989       1.73766950
Ba       6.26629189       6.38190899       1.96135544       1.15489459       0.27886460      -0.37439382
Ba       2.19906154       2.12321695       6.28934752       2.48087326      -0.77320288      -5.09004276
Ba       6.33939352       2.16046529       6.33876147      -2.80169979      -4.25421349      -0.23284666
Ba       1.92772034       6.34855337       2.16012229      -0.07753352      -0.25509793       2.50771593
Ba       2.21627060       6.20803090       6.32607236      -5.32604094       0.50441026      -0.64665581
Ba       6.33638234       1.95295716       2.01146271      -0.93749174       0.24922659      -0.19733513
V        4.13892146       4.11052357       4.17192878      -1.21501009      -0.63828174      -1.94147864
V        0.06001539      -0.00372979       4.24525212       0.73685175      -1.85119661       0.21487655
V       -0.08493107       4.12873886      -0.06735244       2.21068514       0.12786187       0.90846205
V        4.19712816      -0.09374287      -0.11915687       0.12210925      -0.88003930       0.45522860
Bi      -0.00894217      -0.11893782      -0.15167993       1.06922927       4.22366151      -2.60943565
Bi       4.18798453       4.11237634       0.09250849       1.06701589      -1.14104049       1.14299897
Bi       4.31529051      -0.00213182       4.20708596      -2.62061385       2.13651873       1.05834792
Bi      -0.03158940       4.19067499       4.21579139       3.57756589       5.32727928       1.36896462
O        2.19059032       4.32241996       4.23329393      -0.77805820      -0.57977842       0.11372312
O        5.97371555       4.01362891       3.97742834       0.17554629      -0.91595256      -0.71951459
O        4.09903819       2.32147734       3.67459371      -0.28370781      -0.07937276      -0.13017912
O        4.29692668       6.12622709       4.37155150      -1.29380624      -0.77053904       0.62713500
O        4.03586047       4.51356737       2.15431168      -0.37679960       0.08145664       0.14674186
O        4.05023373       3.92901239       6.04762978      -0.45024398      -0.14879028       0.46985126
O        6.37572616      -0.11021071       4.23845172       0.71856281      -0.29437195       0.49546790
O        1.77509974      -0.37362177       4.28748875      -1.04831036      -0.13548787       0.55308083
O       -0.44391302       6.31145427       4.08259254       0.07178410       0.47023209      -0.92828919
O        0.04906222       1.74581150       4.42191387       0.10007066       0.73641851      -0.61877030
O        0.01348595      -0.02137404       2.33025573      -0.21271229       0.72077517       1.01170426
O       -0.13407801      -0.13959954       6.17704020      -0.19122807       0.40185647      -0.24892319
O        6.54977011       3.82138467      -0.08361675       0.49168859       0.34709052      -0.28982883
O        1.82872644       4.21819856       0.09874724      -1.19223885      -0.70458919       0.44787232
O        0.23865044       2.04519488      -0.08451191      -0.73709562       0.50097760      -0.44603659
O       -0.24262171       5.97547108       0.01430158       0.63667120      -0.63519279       0.80411268
O        0.12366756       4.05303519       6.58377990      -0.15970658       0.48815613      -0.85007080
O       -0.14894342       4.03681452       1.98859110      -0.74890327      -0.87506596      -0.37511932
O        2.48895920      -0.32611794      -0.15541791       0.01226546      -1.59493055       0.46359287
O        6.40337247       0.14539553      -0.07995016       0.86647067      -1.09177410      -0.22547589
O        4.62497415       6.62636425      -0.43186484      -0.31695906      -0.07924009       0.40673438
O        4.18101285       1.86994415       0.05665602       0.65752335      -0.28840616      -0.01628610
O        4.16890568       0.27831883       6.46115718       0.03836920      -0.91145097      -0.48034068
O        4.35650021      -0.30858582       1.76688574       0.99830788       0.33929766      -0.49874312
40
Lattice="8.48738753813904 0.0 0.0 0.0 8.48738753813904 0.0 0.0 0.0 8.48738753813904" Properties=species:S:1:pos:R:3:momenta:R:3 group=md300 pbc="T T T"
Ba       1.98805136       2.14351771       2.01407295       0.71275383       0.67467089       2.26483138
Ba       6.56508798       6.16142753       6.34619173      -1.88088950       1.09567594       0.09388270
Ba       6.33469930       6.36626567       1.99646496       2.42770904      -1.66490876       1.88959641
Ba       2.20538381       2.08458219       6.13686404      -1.99406596      -1.21620802      -3.92930607
Ba       6.28708720       1.97295045       6.32234198      -0.58578905      -5.08868508      -0.15877425
Ba       1.97147612       6.33782207       2.21039601       2.00826724       0.32992681       0.37249035
Ba       2.05883533       6.20449124       6.31428367      -2.63806236      -0.06058928       0.12358470
Ba       6.34338706       1.98952757       2.00983241       0.89279370       1.35849602       0.44325775
V        4.22105683       4.25747501       4.12130314       0.18745339       2.43062119       1.71113272
V       -0.06565855       0.00803688       4.16631022      -0.66736590       2.06988485      -1.59272179
V        0.03424547       4.15310218       0.11875205       0.18153808       0.48489317       0.83166377
V        4.25199038      -0.30807378      -0.05121883       0.08847707      -2.43796718       1.10345558
Bi       0.00112011      -0.02837119      -0.18945362      -0.37176061       2.45563968      -0.58322805
Bi       4.22246498       4.09317162       0.05623972       1.04176807      -0.90807558      -3.42223930
Bi       4.24613313      -0.00487872       4.22877287      -4.56258085      -1.06880181       0.41588441
Bi       0.00325350       4.28566875       4.21596753      -0.61349959       2.14792610      -0.44675769
O        2.07848858       4.17129743       4.01194581       0.24889119      -0.43187272      -0.75566794
O        5.94080101       3.92862095       4.13576350       1.46134408       0.01758525       0.19371442
O        3.79378697       2.08566574       3.90125819      -0.03544021      -1.38551357       0.90315299
O        4.10785208       5.91936853       4.48954302       0.75268099      -0.13299284       0.01020662
O        4.02672088       4.59430000       2.24071246       1.47167355      -0.35842842      -0.35988416
O        4.12802701       3.81665584       5.98128465       0.18792888       0.00235745       0.37561042
O        6.48949912       0.07339779       4.25539687       0.47572476       0.82060165      -0.26675016
O        1.94093972      -0.39087613       4.40053447       0.51060408       0.94550904      -0.28419379
O       -0.07460341       6.45574174       4.01041105       1.02219538      -0.06076669      -0.07676481
O        0.18998700       1.76118407       4.28350403       0.24950702      -1.01129994       0.92670315
O       -0.02398773       0.09341831       2.33238943       0.29031499      -0.45536922      -0.78848975
O       -0.03702019      -0.36531606       6.21602083       0.54621928      -0.98217706       0.05154810
O        6.43615533       4.01440517      -0.12498763      -0.46669458       0.59437909       0.21160205
O        1.95069479       4.09782941       0.03655584       0.10432053       0.00037173      -1.21151343
O        0.08344360       2.09848900      -0.30541804      -0.17252709       0.81465238      -1.25415705
O       -0.08321196       5.95180342       0.24188021       0.55515373       0.40150843       0.80226440
O       -0.01965724       4.37527874       6.46368636       0.23056931       0.99560660      -0.23181307
O       -0.11663674       3.77599668       1.78002579       0.18910245      -0.60270677      -0.10880835
O        2.41978399      -0.44773368       0.04212802       0.25565229       0.84922792      -0.07236396
O        6.19536369      -0.16047081      -0.15614574      -0.28078400      -0.58386659      -0.17740667
O        4.45648736       6.39559549      -0.31070018      -0.87620450      -0.92565500       0.24233223
O        4.10238005       1.91608108       0.20067079      -0.65716498       0.10307136       0.31606844
O        4.27173525       0.20161949       6.45944487      -0.10793602       0.29007036       1.10460432
O        4.37096514      -0.17260552       1.72630936      -0.39826363      -0.34054979       0.70781286
40
Lattice="8.48738753813904 0.0 0.0 0.0 8.48738753813904 0.0 0.0 0.0 8.48738753813904" Properties=species:S:1:pos:R:3:momenta:R:3 group=md300 pbc="T T T"
Ba       2.05760157       2.12621411       2.09402649       3.73474296      -0.43367156       1.87879161
Ba       6.43121595       6.24755232       6.37304822      -5.34895632       3.17639066       1.10982377
Ba       6.41119414       6.28522952       2.08517771       1.62599231      -2.78160618       2.07168687
Ba       2.11708752       2.03314830       6.07556464      -2.71571301      -1.30179602       0.50469483
Ba       6.26112126       1.85441339       6.34916187      -0.99722197      -2.06862891       0.80634454
Ba       2.08906140       6.36019050       2.17208772       4.40674311       0.81272536      -2.77915690
Ba       1.98991167       6.22084298       6.29525729      -0.69411741       0.38028614      -1.49399562
Ba       6.32902021       2.06308042       2.05005561      -1.42825662       3.04048162       2.32799574
V        4.30590960       4.24661017       4.32520005       0.93589580      -0.71497850       0.14292178
V        0.01550224       0.04805579       4.07254640       0.84305644      -0.11796806       0.71128444
V        0.00346404       4.18735521      -0.03862261      -1.81815341       0.17789576      -0.94138167
V        4.10700418      -0.29382994      -0.00015559      -1.85118447       2.73921800      -0.45207809
Bi       0.00166146       0.01682673      -0.21125534       0.10144400       1.37517714      -1.31514232
Bi       4.26108791       4.04700014      -0.04526735       2.37813672      -3.18497655      -2.94110101
Bi       4.11099025      -0.04035813       4.25991985      -4.03750669      -0.74349413       1.17156912
Bi      -0.03916971       4.28726594       4.22550881      -3.05793713      -1.89356069       0.25617686
O        2.46047741       4.28286135       4.01526283       1.09281724       0.96663049       0.59974852
O        6.08372269       4.05325026       4.19817447       1.40065389       0.51302933       0.83450010
O        4.16430799       2.16972399       3.97432559       1.79633357       0.27687256       0.39358401
O        4.48229518       6.01711710       4.49949798       0.83524264      -0.58534639      -0.44528113
O        4.53721432       4.26774642       2.11482534       0.82459496      -0.54324968      -0.56620829
O        4.20044029       3.90962620       6.04356837       0.50348373       0.20477942       0.84710556
O        6.72179262       0.08647596       4.15647504      -0.71996642      -0.83678394      -0.05833750
O        2.00219182      -0.06536883       4.04157577      -0.68629824       0.46414705      -1.07283825
O       -0.10763232       6.42964591       3.93838804       0.01764526       0.60400225      -0.18204426
O        0.12196722       1.82724494       4.56071044      -0.32412786      -0.27260525      -0.31050723
O        0.12221538       0.06477148       2.30733577       1.21606360       0.91201648      -0.25337926
O        0.03278708      -0.54462866       6.14034680       0.33944263       0.34801158       0.02559033
O        6.57873597       4.14089358      -0.10274898       0.39326056       0.32376324      -0.88049921
O        1.88952260       4.16720741      -0.13220537       1.41896812      -0.18652442       0.33227500
O       -0.03667892       2.11119112      -0.68533097      -0.39060681      -0.55565632      -0.23472117
O       -0.00896651       6.01288688       0.32565204      -0.11048251       0.04878032      -0.45804757
O        0.10150215       4.57968070       6.39356475      -0.83218916      -0.31491021       0.40430482
O       -0.05605897       3.69939040       1.76830346       0.92476147       0.02839282      -1.74528033
O        2.36988052      -0.13816699      -0.02201448      -0.37682494       1.00250627       0.54271275
O        6.31692800      -0.17270052      -0.12034800       0.13661381       0.61420655       0.59488110
O        4.25282221       6.46709324      -0.30789028      -0.20187293       0.26101867      -0.21352061
O        4.25037269       1.91422670       0.35114252       1.06536228      -1.22791334       0.56135501
O        4.19676637       0.03720332       6.62473788       0.09770690      -0.34291822      -0.39873838
O        4.29979824      -0.55963530       1.89463055      -0.69368762      -0.91949792       0.05798573
40
Lattice="8.48738753813904 0.0 0.0 0.0 8.48738753813904 0.0 0.0 0.0 8.48738753813904" Properties=species:S:1:pos:R:3:momenta:R:3 group=md300 pbc="T T T"
Ba       2.21013714       2.13899799       2.12282712       3.86684846       0.43700502       0.36149549
Ba       6.24058387       6.36009524       6.38900030      -4.27995117       2.28729355       0.14220551
Ba       6.41293897       6.22989496       2.13036061      -1.02808734      -0.13470204       0.55223597
Ba       2.02551729       2.01767789       6.18091510      -1.95830030       0.37586028       4.56732300
Ba       6.24834641       1.82558132       6.34757140       0.13853064       0.66785707      -0.75257654
Ba       2.22489854       6.34074156       2.04020099       3.09228872      -1.66961142      -4.49815329
Ba       2.02577945       6.25723679       6.26408744       1.98577881       1.59790531      -0.06551889
Ba       6.27434813       2.11212422       2.16028752       0.00279509      -0.60296002       3.30519091
V        4.33951719       4.19760593       4.26448449       0.53826820       0.39038221      -1.09214826
V       -0.11991481       0.00050963       4.02255561      -1.29360169       0.14016663      -1.84364884
V       -0.06669281       4.22829953      -0.13675915       0.50507501      -1.26855266      -1.21748602
V        4.11392057      -0.08395363       0.04831986       0.87396152       0.32025074       1.39883119
Bi      -0.03083848       0.03580339      -0.19488176      -2.27139362       0.86079009       1.91433903
Bi       4.28409050       3.98498701      -0.06905515      -0.00590354      -1.10729129       0.81404736
Bi       4.10890469      -0.07685701       4.23919517       2.36621978      -1.77363502      -1.10054696
Bi      -0.07458867       4.21840654       4.25976897       2.10545214      -2.61124155       1.53380811
O        2.58381077       4.32424528       4.16417560      -1.20260165      -1.19302699       0.16226756
O        6.25276901       4.11198278       4.29619260      -1.81183233      -0.18417229      -0.02746739
O        4.39526621       2.15774479       4.01847982      -0.20553652       0.08401474      -0.72568260
O        4.58800475       6.01406205       4.31101536      -0.00357957       0.54406942       0.02195106
O        4.56206839       4.28975933       2.30092001      -0.62091634      -0.30373613       0.42449472
O        4.42106442       3.85288760       6.02319656       0.43334042      -0.03825349      -0.12605833
O        6.64216304      -0.13619127       4.10624847      -0.53342378      -0.88803422       0.16294485
O        1.98331645      -0.15838238       4.30204077       0.48882623      -0.96825932       1.14279332
O        0.06034562       6.42733238       3.84846957       0.22686942       0.24370678      -0.70097770
O        0.00888886       1.79473915       4.37430124      -0.45883213       0.26408912      -0.11880601
O        0.01402390       0.36521320       2.28654308      -1.28229138      -0.22836769       0.04541901
O        0.11529425      -0.27373598       6.09718780      -0.67213930       0.71234421      -0.44850805
O        6.62284613       4.09145829      -0.37395574      -0.32858615       0.21822936       0.06154758
O        2.16252224       3.99035617      -0.17523193      -0.80882683      -0.90452931      -0.83834570
O        0.00025723       2.13546496      -0.58261353       0.18282752       0.33083850       0.53334957
O        0.16383791       6.01246076       0.00532246       1.16954046       0.33603178      -1.09063532
O        0.10524327       4.38707430       6.31308647       1.61631048      -0.41031439       0.44499415
O        0.06254136       3.77289639       1.63812808      -0.79782586       0.99968435       0.26108384
O        2.33043158       0.19310126       0.00800197       0.30357366       0.78227922      -0.44007007
O        6.29739584      -0.14334156       0.00268252       0.05368721      -1.01917655      -0.71299562
O        4.09708104       6.50274748      -0.35823960      -0.47598454       0.12283108      -0.52315765
O        4.49487250       1.70012199       0.19775634       0.13488423       1.85796342      -1.45189016
O        4.12357611       0.20193822       6.40382407      -0.18603179      -0.01632841      -0.26234642
O        4.16834655      -0.42764878       1.83058349      -0.03722336       1.06355131      -0.32718894
40
Lattice="8.48738753813904 0.0 0.0 0.0 8.48738753813904 0.0 0.0 0.0 8.48738753813904" Properties=species:S:1:pos:R:3:momenta:R:3 group=md900 pbc="T T T"
Ba       2.12862599       2.18403592       2.52251010      -1.61762267       0.59208364       0.30317876
Ba       6.36295755       6.53140564       6.66286106       1.96407800      -1.60802988       2.70839224
Ba       6.15225305       6.49238665       2.41710032       4.12904742       1.44614576       0.03849286
Ba       1.72345427       2.16924243       6.49247599      -2.37329155       4.19154813       2.26826883
Ba       6.14077745       2.14964432       6.81345630       2.03322121       0.70279611      -2.02397961
Ba       1.68088252       6.39473117       2.26181323      -6.51202087      -8.31758707      -1.30021489
Ba       1.81203009       6.48403972       6.34848834      -2.72620306      -1.83567867       0.96456672
Ba       6.28422486       2.36846586       2.29537204       1.44271273      -3.02925275      -3.63155062
V        4.14743431       4.30104298       4.50993779       0.27984746       3.09293854      -0.75288342
V       -0.19345339       0.03845997       4.36374621       0.88773805       0.52804959      -0.38394504
V       -0.08738121       4.21967586       0.17887226      -0.53560707      -0.31552089      -0.36313862
V        4.00987585       0.19307884       0.25748248       1.68138286      -1.43913211       1.10545936
Bi      -0.08932900       0.05993410      -0.02407588      -0.27731354       1.81400846      -1.16849994
Bi       3.97534687       4.52510814       0.24949986      -1.63065728      -1.72399993      -0.00277862
Bi       4.21741541      -0.01635301       4.40706109      -6.80562991       0.48552887       0.54978595
Bi      -0.17158202       4.19552947       4.28409298       3.51043263       4.70628478       3.96633096
O        2.15502728       4.50594078       4.34882681      -1.31356373       0.86640194       0.04179977
O        6.04943557       3.92814337       4.77147097       0.38340527      -1.22375431       2.94783247
O        3.83036314       2.23301958       4.53839425       0.15511812      -0.44872958      -0.24999843
O        4.26702900       6.14663207       4.64246301      -2.92506696      -0.95863657       1.90245321
O        4.15584337       4.26180804       2.74813662       0.05285232      -0.78127591      -0.44355232
O        3.61360250       4.44758774       6.54482888      -0.56323668       0.13302257       1.08576757
O        6.32313673      -0.03113836       4.25129540       2.10328458      -0.53132553      -0.61129431
O        1.74789667      -0.10718406       4.35647804      -0.38425892      -1.59883968      -0.56320638
O       -0.40634045       6.32341029       4.36012215       2.00538594      -0.29139631      -1.22978293
O       -0.20730125       1.81023174       4.37313828       0.66019551      -1.00433383      -1.62976071
O       -0.09174290      -0.07368532       2.37198048       0.11447624       0.36623485      -1.75299121
O       -0.23576678       0.04897943       6.29869577      -0.04453627       0.89220205       0.56802982
O        6.31310259       4.51100215      -0.17353323       0.08278165      -0.01094111      -0.09059655
O        1.57437622       4.32541302       0.61381801       0.32332889       0.11774346       1.09957655
O       -0.34197963       2.26132171       0.14676733       0.56268704       1.12845362      -1.44489629
O       -0.21054197       6.06957442       0.31327341      -1.13145336       1.39709073       0.31208933
O        0.19094996       4.30944443       6.74579989      -0.55833890       0.57221171       0.98318590
O       -0.68382849       4.48494968       2.19312649       0.04390780       2.78314835      -0.11531407
O        2.19704415       0.64946904       0.33520638      -0.16320405      -0.40040465       0.08378956
O        6.03646944       0.13402578       0.21294250       0.57755801      -0.22959316       1.25513157
O        3.67790723       6.70268291       0.37808966       0.72840053      -0.58496194       0.20927043
O        4.40289031       1.96493838       0.34196562      -0.31338427       1.33043097      -0.00269113
O        4.29565407      -0.19756093       6.92154597       0.19494380       1.00137173       0.89407548
O        4.37706122       0.06044940       2.18502056      -0.43572454       0.98950757       1.26907919
40
Lattice="8.48738753813904 0.0 0.0 0.0 8.48738753813904 0.0 0.0 0.0 8.48738753813904" Properties=species:S:1:pos:R:3:momenta:R:3 group=md900 pbc="T T T"
Ba       2.06643148       2.20333454       2.47521651      -0.33133139      -0.78412790      -4.02750130
Ba       6.38001670       6.44939034       6.70669711      -1.55943873      -0.51682688      -1.37458851
Ba       6.29057497       6.50063375       2.37925082       1.87495865       0.75323506      -2.05718147
Ba       1.75191466       2.30192912       6.52854999       3.57898627       2.76450612      -0.99644939
Ba       6.12421133       2.18695173       6.72575897      -2.14172417       0.76611179      -2.06291058
Ba       1.52384563       6.17871034       2.25813544      -1.36703777      -3.86092541      -0.23421632
Ba       1.78923863       6.38614018       6.37218148       1.70249143      -1.60720384       1.19614465
Ba       6.29496468       2.16164527       2.16744554       0.14431297      -5.85630456      -2.60567450
V        4.09546893       4.31437537       4.53161905      -4.40857043      -1.04686949       1.72651955
V       -0.00597516       0.07988532       4.13630084       1.85858675       2.62404087       0.21276504
V       -0.29266993       4.42865891       0.17670812      -1.56013160       0.35553858       1.48834782
V        4.08969949       0.24875428       0.29655414      -0.92772283       1.88462921      -0.40346755
Bi      -0.11427415       0.09829566       0.08387797      -3.18145744       1.20564013       6.79382686
Bi       4.00140014       4.46111691       0.22538138       1.03876656      -4.10718929      -2.48889153
Bi       4.06142819       0.02050448       4.44993923      -6.42504520       2.92866794       2.20537375
Bi      -0.14985355       4.36009837       4.39894215      -1.86181199       6.76601633       4.56548565
O        1.96488573       4.18360746       4.21993190       1.18695620      -1.88282274       0.01746412
O        5.70658793       4.30702625       5.17943081       1.72152683       2.06244799       1.55823438
O        3.82661424       2.22894251       4.74849619       0.14414216       1.11329696       1.08655468
O        3.95746208       6.14921915       4.80188679       0.72673574      -0.64752853      -0.96152741
O        4.44616099       4.29780625       2.82676902       1.72903716       0.63611165       0.70207210
O        3.38962981       4.20176322       6.67831523       0.45933691      -0.78068982      -0.54309536
O        6.35109719      -0.16762291       4.35450082      -2.22008604       0.64062776       0.30117835
O        1.89470589      -0.22022653       4.34645547       0.66241610       1.02019586       0.36420294
O       -0.24298343       6.45429392       4.47397465      -1.19271885       0.50713418       0.37715486
O        0.08888079       2.00780664       4.02292898       0.18084423       0.22449652       0.52463885
O       -0.02336749       0.00189414       2.42082073       0.38837123      -1.04047335       1.22863951
O       -0.27633702       0.20228750       6.16478228       0.03842747       0.54560945       0.00328643
O        6.31647811       4.34086254       0.14846160       1.45529459      -0.00699260       1.47185521
O        1.76398760       4.07206512       0.64752262       0.06041351       0.72423463      -0.82424356
O       -0.33606110       2.59950691       0.15197260      -0.76843310      -0.35154684       1.09401462
O       -0.16941577       6.46482308      -0.13268734       1.48774946      -1.87277155      -0.41652522
O        0.00054269       4.53822433       6.72106176      -0.62003430       0.68607292      -1.02610045
O       -0.40922324       4.31779025       2.19029508       0.48265436      -0.46363040      -0.22520658
O        2.34752085       0.18971945       0.13866616      -1.08377108      -2.19852396       0.31883807
O        6.21793114       0.00929801       0.40711944      -1.48082499       0.22948191      -0.50795333
O        4.02297853       6.84449233       0.64888508       2.09744691       0.75877769       0.65231816
O        4.23421213       2.11145272       0.43020585       0.71500378       0.02074370       0.74936459
O        4.31021814       0.25652074       6.98611367       2.03423630      -0.01449213      -1.24883148
O        4.04431875       0.36099603       2.33536509      -0.43465028       0.36279606      -0.47419788
40
Lattice="8.48738753813904 0.0 0.0 0.0 8.48738753813904 0.0 0.0 0.0 8.48738753813904" Properties=species:S:1:pos:R:3:momenta:R:3 group=md900 pbc="T T T"
Ba       2.09013410       2.14726365       2.29141670       1.14254337      -2.05222695      -5.93225552
Ba       6.24688955       6.53650591       6.63021659      -5.47774901       5.56057012      -1.23732737
Ba       6.30773195       6.53959787       2.31573901      -0.66104193       1.15762279      -0.58349784
Ba       1.91371235       2.37075378       6.52285155       4.52360441       0.89974999      -1.33715015
Ba       6.05170488       2.30022915       6.59827169      -0.90815975       5.02285319      -3.85117829
Ba       1.60584376       6.17289717       2.21752905       6.34853600       5.32247223      -0.94967458
Ba       1.85517490       6.39700709       6.48528385       2.10716919       1.98669151       4.97427730
Ba       6.27557214       1.92803865       2.13732091      -0.94608182      -5.32104557       1.47804800
V        4.02891691       4.31374254       4.57614715       2.20879789       1.58610825       0.50320586
V       -0.21053591       0.21005981       4.63266728      -6.36105554      -1.14658760       4.00690923
V       -0.23525322       4.22823529       0.21773372       0.96233392      -1.21235581      -1.07862807
V        3.98271005       0.09211169       0.26716423      -0.47259902      -5.09841964       1.56504484
Bi      -0.18578840       0.14360708       0.21995525      -1.10338303       1.09367839       4.87776865
Bi       4.00760695       4.37629326       0.20244793       1.71981371      -3.53170516       2.51070288
Bi       4.04114689       0.07723593       4.50845412       4.03967535       2.54868105      -0.35127395
Bi      -0.25606340       4.44932349       4.51563022      -7.56410374       0.33513596       3.38446272
O        2.06253100       4.28145070       4.36534388      -0.17316297       1.18139578      -0.04274353
O        6.00418989       4.31538452       5.19303748       0.46796937      -0.31257929      -1.80943128
O        4.06339079       2.35222426       4.87290548       0.05958774      -0.75301866       0.44000851
O        3.85709303       6.25615926       4.54837092      -0.59925887       0.52281262      -0.36896930
O        4.57383269       3.99662994       3.02939871      -0.92288476      -1.88476758      -0.24901532
O        3.74632841       4.47861988       6.62171891       1.30237290       1.42963926      -0.20624636
O        6.24706503       0.25515830       4.21376741       2.17001781       0.56862189       0.71754942
O        1.66174634       0.11339336       4.45722009       0.55534093       1.09363534       0.14158012
O       -0.19881705       6.65017264       4.36322260      -0.13265950       0.10435496       0.94251111
O       -0.30384257       2.11135091       4.37327215      -2.18277015       0.71240560       1.03822660
O       -0.13528657      -0.19045524       2.25838310      -0.66633158       1.52361989       0.91417972
O       -0.25797049       0.03518144       6.32944984      -1.26449486      -1.14279120       1.82473460
O        6.32753810       4.58816992       0.13762291       0.19095894      -0.39531865      -1.22951494
O        1.87056537       4.21491081       0.24226810       0.74650991      -0.84885361      -1.06416772
O       -0.11655645       2.27216699       0.21385249       1.17222193       0.11523747       0.75675619
O        0.03914262       6.03769544       0.25553823      -1.85329430      -0.26167778      -0.47580942
O       -0.03840231       4.05653698       6.78777647       0.60503894      -2.17241881       1.12146583
O       -0.27536638       4.38764350       2.10515865      -0.43373550      -2.21149415       0.65127526
O        2.32224627       0.00509240       0.07966162       0.75430245       0.60674592      -0.55453453
O        6.21643086       0.15842291       0.42466002       0.66763377      -0.47512273      -0.14944909
O        4.41407367       6.68420782       0.35530306      -0.66113094      -0.32565051      -2.37811019
O        4.05959906       2.08408120       0.20672670      -1.82073978      -1.01030968      -2.02146824
O        4.15588666       0.07132886       6.99607814      -2.18036700      -0.27152987      -1.29668229
O        3.87994033       0.38955160       2.30413753      -0.61325489      -0.64043901       0.90185530
40
Lattice="8.48738753813904 0.0 0.0 0.0 8.48738753813904 0.0 0.0 0.0 8.48738753813904" Properties=species:S:1:pos:R:3:momenta:R:3 group=md900 pbc="T T T"
Ba       2.05697304       2.09719368       2.17456386      -2.22209040      -0.63033897      -1.73790659
Ba       6.04765290       6.65470213       6.59830187      -5.13039017       1.97000988      -1.09931078
Ba       6.30842357       6.51044974       2.28997577      -0.14743211      -2.17041777       0.15514185
Ba       2.05548030       2.33160061       6.52695832       1.80340696      -0.88509974       1.95249461
Ba       6.06579877       2.36596683       6.52244789       0.48224086      -1.75416961      -0.72610586
Ba       1.83731370       6.41094440       2.22298069       6.17864298       5.96640399       0.79912232
Ba       1.97143168       6.51405371       6.61352037       3.27076853       1.95496019       3.10390139
Ba       6.22739009       1.90080641       2.25340044      -3.26619468       2.69918197       2.87386971
V        4.08189007       4.42611635       4.47263794      -1.26546202       0.09414966      -3.90913607
V       -0.21635842       0.16496061       4.71310367       4.27349023       1.33776132      -0.13632886
V       -0.20916993       4.32445027       0.03763236       0.47473809       2.43763377      -1.01423729
V        3.95396425      -0.16564749       0.21729447       0.28111635      -0.21845808      -2.91260642
Bi      -0.16415656       0.16748659       0.31584097       1.31898068       0.73056137       2.87901729
Bi       4.04523047       4.22731459       0.30416140       1.24629899      -8.92424776       6.28646167
Bi       4.03653253       0.16232069       4.52633091      -4.00072035       3.48392335       0.67845452
Bi      -0.41215158       4.35905508       4.52405885      -3.05990708      -4.80632109      -4.05520055
O        2.34959767       4.37650490       4.41207455       0.56937585       0.10096087       1.07138542
O        6.02051925       4.66956212       4.57662673       0.99691561       0.71859387      -0.99085747
O        4.11274358       2.44906495       4.86339199       1.75213747      -0.24326726      -1.24924848
O        4.26541497       6.23896379       4.18287917       1.53910657       1.73388772      -1.86760123
O        4.14954419       4.00997765       2.63959138      -1.03877874       0.89331060      -1.76728721
O        4.08564872       4.61086164       6.63165230      -0.00252159      -1.18191010       0.56992438
O        5.93486436      -0.13126119       4.39758359      -0.58258056      -2.08251834      -0.67699487
O        1.44293770       0.50947458       4.78409265      -1.75716429       0.01203712       1.52301583
O       -0.24093394       6.76055894       4.65992846       0.60509992      -0.33020778       0.44424958
O       -0.62394525       1.95504110       4.78770956      -0.74760414       0.06972276       0.14661342
O       -0.14236045       0.12232858       2.61870255      -0.09322673      -0.80367064       0.46311425
O       -0.57790445       0.18775291       6.45352867      -0.37847025       2.05634499      -0.07762985
O        6.44561679       3.95002276       0.00667758      -0.60299234      -1.60653078       1.60302647
O        1.78383643       4.39737287       0.42915845       0.19094967       1.21318587       1.95156303
O       -0.11433448       2.26296024       0.56157603      -0.44350111       0.58853113       0.48305055
O       -0.19715407       6.17952804      -0.05868680      -0.02324268      -0.35449663       0.35060379
O        0.02093054       4.02728404       6.74146305       0.41832533       0.80386593      -0.89978758
O       -0.42073164       4.23098993       2.35639450      -0.31469540       1.87330069       0.36780594
O        1.93620991      -0.13265608       0.27395731      -0.89087858      -0.39029792       0.56850862
O        5.69201652      -0.02588653       0.13353225      -2.22627234      -0.23287413      -1.20944883
O        3.79162021       6.49872005       0.22566245      -2.19800515      -0.03192321       0.70096601
O        4.08138213       2.08472659       0.08977406       0.05631738       0.27532312       0.84874060
O        4.00208901      -0.23171792       6.59679584      -0.23756175      -1.31825046      -0.23810548
O        4.08947913      -0.09952581       1.84733851       0.40948224      -0.96045870      -0.19217200
40
Lattice="8.48738753813904 0.0 0.0 0.0 8.48738753813904 0.0 0.0 0.0 8.48738753813904" Properties=species:S:1:pos:R:3:momenta:R:3 group=md900 pbc="T T T"
Ba       1.95268424       2.10808565       2.17159594      -2.97511283       1.06052836       2.38462462
Ba       5.93565750       6.62273420       6.48148043      -1.32780837      -3.35149177      -4.00745393
Ba       6.24502734       6.45471035       2.33401872      -2.69930276       0.95598414       1.63161542
Ba       2.09419900       2.32931702       6.64414384       0.36419879       1.11222857       4.12021672
Ba       6.13496527       2.29315069       6.60729821       3.17768367      -2.03053733       4.28666137
Ba       2.04359939       6.55205483       2.34061992       3.86531443       3.87492245       4.97880731
Ba       2.03488106       6.50267962       6.70019345      -1.29405001      -3.10182433       0.85412435
Ba       6.09246057       2.03917942       2.38117398      -2.81906667       3.84030556       1.93193365
V        3.98744676       4.48054858       4.28141287      -1.03817282      -0.12400088       3.14511975
V       -0.27311827       0.07770471       4.62948854      -2.45228383      -2.20546959      -2.01250860
V       -0.21882016       4.34879656       0.27873343      -0.20460916      -0.72567438       5.00441083
V        4.00143119      -0.05944864       0.12861986       0.79518628       4.09856373       1.62084413
Bi      -0.17251423       0.17888439       0.33853582      -1.11865209      -0.70509856      -0.75569654
Bi       4.06107894       4.05812746       0.35478880      -0.61578975      -5.09027883      -2.34617220
Bi       3.93833750       0.24309199       4.46887014      -3.26930262       4.13092320      -6.10678645
Bi      -0.40443885       4.24861711       4.32549252       2.29453714      -5.24276437     -10.23462185
O        2.31404197       4.39597997       4.67536791      -0.83220367      -0.77067994      -1.51480678
O        5.85863398       4.60211049       4.64276723       0.04137577      -0.02665985       0.63468987
O        4.43621992       2.31874892       4.32828338      -0.59156364      -1.26871227      -0.96915459
O        3.78717703       6.19798502       4.07546174      -1.39119483       0.42251755       1.55591948
O        4.04787633       4.03311134       2.48499598      -0.02489335      -0.43785502      -0.80374563
O        3.99959703       4.26151193       6.47927568       0.69783750      -0.70129797       1.18509802
O        6.51484435      -0.00923387       4.36242936       0.61594849       0.95325963       1.09760207
O        1.81712157       0.41809543       4.70618188       0.78416964      -0.18578547      -2.54839037
O        0.15996997       6.97741463       4.96454344       1.01540314      -1.09799764       1.32819154
O       -0.67179910       2.26167640       4.00921639       1.65904409       0.45873192      -2.05584545
O        0.04587012      -0.10033763       2.72043879       1.51236707      -0.30155219      -0.55662364
O       -0.39636449       0.49176770       6.45039058       1.43854747       1.17216929      -1.09066460
O        6.47975778       4.18035587       0.35731151       0.01580362       1.07872877       0.30727434
O        1.67917154       4.19258607       0.58850326       0.29198086      -0.19700920      -1.09474710
O       -0.01628335       2.26144662       0.46417858      -1.27064307       1.03649919      -0.05196402
O       -0.39760874       6.19902389       0.20410574      -0.48985555       0.07050256       0.19865420
O        0.05678337       4.19696660       6.95376894      -1.18668973      -0.14802332       0.71516322
O       -0.35552672       4.81226645       2.36439167       1.36730507       1.39079138       0.19146657
O        1.99440522       0.29557031       0.06142468      -1.08215456       0.46832305      -0.82564955
O        5.82029662      -0.03724254      -0.05459898      -0.60912632       0.57758358       2.21864596
O        3.77484703       6.62815342       0.38367005       2.14265370      -0.85996608       1.30311835
O        3.73153770       1.91358031       0.16821331       0.42888059       1.31079975      -0.15239172
O        3.79515150      -0.11641058       6.85026250       0.93757977       1.24637534       0.64226308
O        3.79187454       0.27379234       2.28707161      -0.47009470       1.20576766       0.37834673
40
Lattice="8.48738753813904 0.0 0.0 0.0 8.48738753813904 0.0 0.0 0.0 8.48738753813904" Properties=species:S:1:pos:R:3:momenta:R:3 group=md900 pbc="T T T"
Ba       1.79419802       2.16041711       2.33596817      -5.04299432       2.77514702       4.12474742
Ba       5.94881698       6.45678918       6.46811469       2.83910787      -6.17058535       0.93173441
Ba       6.09669829       6.54270061       2.32562852      -2.90828384       2.05345381      -1.02007292
Ba       2.03404221       2.33761271       6.80731592      -3.40379530      -0.57025771       3.34018539
Ba       6.29594252       2.18724058       6.71732380       3.51097491      -4.10820054       2.69721239
Ba       2.11739267       6.62717412       2.39446096       0.44027515      -1.49353649      -0.16858378
Ba       1.97867298       6.32473637       6.70911104      -1.34236723      -6.00912230       1.03719084
Ba       5.97863109       2.20702125       2.42420361      -1.55557002       5.36965591       0.17396514
V        3.87694333       4.29021703       4.55853525      -0.28310111      -2.52737993       1.29252413
V       -0.16439212      -0.06330476       4.51957849       0.79933605       2.01630452      -2.61092377
V       -0.30273960       4.40448864       0.29417241      -3.17706691       0.73756444      -1.97427498
V        4.12578174       0.10855820       0.31797424       2.36668133      -0.22275309      -0.12344083
Bi      -0.20708466       0.15317567       0.31025067      -3.19565340      -1.62621509       0.05637493
Bi       4.03456545       4.07786160       0.26473056       0.69749653       5.76536243      -3.96962786
Bi       3.85733309       0.28139149       4.34961572      -1.81466789       0.03041924      -0.95777606
Bi      -0.29715324       4.20893978       4.21482812       5.85070174      -1.07209547      -1.14473307
O        2.14818583       3.98497846       4.39973594       0.83594984       0.56222820       1.19034362
O        6.09160622       4.58754169       4.41550926       1.39047625      -0.50862430      -1.20535588
O        4.23087789       2.44182786       4.82788407      -0.24870471      -0.20018253       2.62916642
O        3.84939420       6.15666410       4.76534969      -1.15621513      -0.55678218       2.01781523
O        4.17677761       4.25677914       2.85060882       0.16778402       2.24480601      -0.46998960
O        4.12567360       4.35807694       6.46359171      -0.46536252       1.17639856       1.33164730
O        6.45454806      -0.08134531       4.44144896       1.25908502      -0.22866036      -0.75567593
O        1.70205277       0.46227861       4.27768521      -0.53050027      -1.41655464       0.11100627
O       -0.25149787       6.70540808       4.87774613      -0.39581481       0.08462414      -1.29661840
O       -0.17617111       2.12111713       3.75260772      -1.79411571       0.88628143       0.66231318
O       -0.07741759      -0.28348726       2.33843213      -1.78526373      -1.36816886      -0.75356525
O       -0.01050426       0.77163353       5.98668006       0.70533873       0.23949843      -0.02312265
O        6.15281797       4.37417481       0.65516487       0.05379929       1.67360287       0.96726403
O        1.79927258       4.50250166       0.23627256      -1.33625520       0.67454416      -1.55857067
O       -0.44932899       2.55965644       0.77463695       0.72108653       1.07256832       1.38849671
O       -0.22877252       6.43846851      -0.05570524       0.27657554       1.63783850      -1.76443141
O       -0.42602499       4.12789698       7.04839688      -1.06572939       0.33520573      -1.73851588
O        0.01769173       4.98910232       2.25449576      -0.24502738      -0.11490485      -0.41397058
O        2.13383689       0.05543267      -0.02510120       2.56953813      -1.12524917       0.68750952
O        6.05087044       0.36679882       0.82843455       2.70571055       0.22657889       1.29150862
O        4.19199265       6.84102295       0.47845310       0.15576080      -0.32548833      -1.16803539
O        4.18481219       2.01200080       0.09095282      -0.11303509       1.59511984      -0.67431596
O        4.35344124       0.11603620       6.91229951       2.17420188      -0.37120014       0.72853132
O        3.76545886       0.30797270       2.14901199      -1.57324773       0.57449871       1.29043423
40
Lattice="8.48738753813904 0.0 0.0 0.0 8.48738753813904 0.0 0.0 0.0 8.48738753813904" Properties=species:S:1:pos:R:3:momenta:R:3 group=md900 pbc="T T T"
Ba       1.64483204       2.27340225       2.46256420      -2.77613794       3.08528872       4.02065743
Ba       6.13787374       6.26656948       6.44483851       7.58663394      -4.13553388      -2.54638260
Ba       6.02885206       6.57625078       2.31974955       0.30926782       0.30334308       1.35858181
Ba       1.84322773       2.29245669       6.89604563      -6.57378549      -1.11639874       1.48003829
Ba       6.34183157       2.08483154       6.73959464       0.66147645      -1.53886808      -1.37316339
Ba       2.11554045       6.52850916       2.36013275      -0.84733842      -2.21541943      -1.29708690
Ba       1.94429376       6.17713943       6.75760279      -2.09258867      -0.99776569      -1.92360841
Ba       5.89669781       2.45398698       2.45671835      -4.19818904       6.72691883      -0.94880880
V        4.01277506       4.35295921       4.51640828       1.36357522       2.64764851      -0.29670210
V       -0.29447733       0.01720234       4.35607632      -2.68494544      -0.48520454       1.14813639
V       -0.31707270       4.45157185       0.08241797       2.74073442       0.91945403      -2.16392193
V        4.28375385      -0.01581480       0.09362584       1.28143113      -0.68262736      -1.99358956
Bi      -0.30901346       0.07762082       0.32116190      -5.36851512      -5.69501107       0.32143241
Bi       4.04808851       4.32158158       0.24343163       2.84151164      11.27498039       3.16596920
Bi       3.88744818       0.21675609       4.46903585       4.75643691      -4.95721978       8.64040721
Bi      -0.18816790       4.25241120       4.21500933       3.38746722       3.62918228       3.54826121
O        2.12706863       3.82881318       4.84787408      -0.96748413      -1.25983406       0.26027354
O        5.83959522       4.37003751       4.34278646      -1.85880568       0.28852298       0.62619204
O        4.17898738       2.30233957       4.90798041       0.05827177       0.08868867      -1.88471719
O        3.73531576       6.08303094       4.58299392       1.27504170       0.28048306      -2.56476987
O        3.77095753       4.45056001       2.76513897      -2.16998108      -1.86438552       0.02296212
O        4.20602625       4.52531263       6.49233788       0.48389245      -0.24443382      -2.31803021
O        6.37893368       0.12506907       4.22905079      -0.36044721      -0.68427092      -0.81779795
O        1.73189090       0.10437998       4.28359423      -0.80255638       1.40924553       0.24627477
O        0.07456606       6.81264893       4.85708600      -0.36124552      -1.02350145       0.92536188
O       -0.52998109       2.05377081       4.01308496       2.40157559       0.22753763       1.15151132
O        0.10832791      -0.24823331       2.52801188       0.94398649       1.76195878      -0.31182085
O       -0.10197621       0.57481069       6.39649642      -0.90029800      -0.89115737       1.02164679
O        6.27026059       4.65302790       0.25871182      -1.49525065      -0.91953674      -1.93474312
O        1.59417888       4.51665735      -0.00091064       0.99387807       0.52668747       1.38223360
O       -0.14945718       2.58290923       0.53796900      -1.19162459      -2.26997652      -2.18111624
O       -0.46758553       6.62056716      -0.44111958      -0.60395871      -1.44106996       0.67939499
O       -0.50666885       4.14563659       6.82949302       0.66504827       0.48887471      -0.76031175
O       -0.09211522       4.97095485       2.19108843      -0.00024124       0.18855439       0.20467609
O        2.38899012       0.08269307       0.17042945      -1.04586463       0.13237842      -0.61350741
O        6.01717178       0.24282052       0.71136790       0.03318204       0.19008453       0.55300048
O        4.32455968       6.56037425       0.41951969      -0.44113867      -0.69068524       0.51710854
O        4.25066118       2.05723335       0.18494455       0.22142995       0.78680048      -0.27968029
O        4.89669977      -0.00882514       6.88038755      -1.23637828      -0.82897208      -2.18509705
O        3.99175464       0.76897711       2.38986850       2.42511999       0.54046045       0.89006188
40
Lattice="8.48738753813904 0.0 0.0 0.0 8.48738753813904 0.0 0.0 0.0 8.48738753813904" Properties=species:S:1:pos:R:3:momenta:R:3 group=md900 pbc="T T T"
Ba       1.66955040       2.29081887       2.51009625       3.07459369      -1.07415169      -0.54022854
Ba       6.36397554       6.13479348       6.36434701       4.09703016      -0.59249863       0.31624474
Ba       6.07335202       6.58748968       2.38322516       0.66887058       1.17913415       1.78110965
Ba       1.66511114       2.20311465       6.92429382      -2.95987716      -4.16650898      -1.46825793
Ba       6.33399829       2.15178436       6.66722840      -2.19919192       5.40040343      -3.23227093
Ba       1.99567611       6.50420268       2.30573975      -5.01976591      -0.74169775      -2.07492031
Ba       1.86148826       6.23958440       6.64910649      -2.62654178       4.30744220      -3.15512625
Ba       5.75791418       2.61225056       2.38518715      -1.84471946       1.00680728      -1.78534931
V        3.97218693       4.31554156       4.54985110      -0.78581841      -2.00371922       0.54492147
V       -0.24785711      -0.01199047       4.57842942       0.38725557       0.61765357       2.06178170
V       -0.15000389       4.33873772       0.14170519       1.01122034      -1.41336324       3.72618508
V        4.18100133       0.22705758       0.06635809      -2.43006070       3.86984043       2.14950716
Bi      -0.40220986      -0.03732280       0.33209124       0.26385895      -5.38038497       0.69671208
Bi       4.11826689       4.52162882       0.28914000       2.88380657       6.49298310       0.90678696
Bi       3.99081510       0.14204895       4.59027803       3.74331419      -2.02531950       2.05080032
Bi      -0.13243131       4.37176051       4.33589064      -2.24523747       2.78439055       3.85985527
O        2.07874088       4.35883578       4.68863912       3.64559950       3.50020142      -0.90863084
O        5.79629374       4.61404685       4.24386187      -0.87915145       0.30832105      -0.18218599
O        4.36977427       2.45142399       4.67606823      -0.16456045       1.54835362      -0.46066758
O        3.90190475       6.28577947       4.00629145      -0.15779049      -0.86462390       0.27824331
O        3.58833826       3.92482595       2.41545957       2.71135918       0.21760084      -0.93717581
O        3.76544836       4.45597416       6.37550169      -0.88083377       0.55709327       0.28273437
O        6.42742732      -0.02940738       4.44817130      -0.47703804       1.36412061       1.48859241
O        1.93619129       0.43793992       4.81150470      -0.04598889      -0.53180627       2.23062081
O       -0.13398878       6.65832865       4.64291598       1.77172376      -0.58274478      -1.42694523
O       -0.38322540       2.17310923       4.33609939      -2.20780990      -0.92637812       0.90414157
O       -0.10887026      -0.13621093       2.59294292      -0.28839658      -0.09571842       0.17404573
O       -0.44283162       0.10733904       6.34380908      -0.23518948      -1.63591063       0.33506220
O        6.32586206       4.27607986       0.11293531       0.30300346      -0.30813252      -0.30320284
O        1.61207098       4.38897417       0.30374842       0.61469291      -1.92437002      -0.29184117
O       -0.38410345       2.47928173       0.00623601       1.13657800      -0.43707175       0.07346579
O       -0.23034071       6.26488788       0.10115438       0.50534571       1.50612325       0.80175197
O        0.01260436       4.33152239       6.65359156       1.02428508       0.47218145      -0.42038238
O       -0.32917441       4.47333067       2.06120396      -0.42604950      -3.45208735       0.49992442
O        2.32303485       0.08514895       0.10003662      -3.18020248       1.32422030       0.51657251
O        6.09726659       0.02534109       0.40706567      -0.05726418      -0.78397604      -2.42660877
O        4.09674454       6.70995086       0.50706590      -0.01451192      -1.87949993       0.24166791
O        4.25430534       2.03483277      -0.11854180      -0.42684215      -0.87093029      -0.63708917
O        4.31877276      -0.29450077       6.74515724      -0.14585646      -0.94074035      -0.17569743
O        4.11158509       0.04152212       2.34343907      -1.35882429      -2.41551699      -2.07746678
40
Lattice="8.48738753813904 0.0 0.0 0.0 8.48738753813904 0.0 0.0 0.0 8.48738753813904" Properties=species:S:1:pos:R:3:momenta:R:3 group=md900 pbc="T T T"
Ba       1.81691269       2.18760790       2.44372636       5.31592704      -3.94909670      -2.07446628
Ba       6.47153919       6.22214713       6.42522327       1.79372520       4.82454495       3.61111832
Ba       6.07037838       6.60529998       2.45360243      -0.78389971      -0.68001846       2.39490047
Ba       1.64707186       2.10959469       6.79560414       0.41579440      -1.70553932      -5.42273006
Ba       6.26254852       2.32182082       6.58028768      -1.23592420       5.49430378      -2.13711032
Ba       1.83226824       6.45744552       2.23373782      -3.52131958      -1.10559865      -1.17196003
Ba       1.84490637       6.49413530       6.54884430       1.01523754       9.62939818      -2.13151019
Ba       5.82041249       2.50608732       2.29137252       5.37596901      -6.48494080      -1.76344114
V        4.01878228       4.38608915       4.62113774       0.76044414       1.60414379      -3.32356988
V       -0.28304283       0.15943697       4.67674784       1.52879069       2.14599858       0.13402818
V       -0.13858928       4.15509516       0.46595784       0.48773347      -2.19981120       1.16450258
V        3.76927473       0.22602437       0.21534963      -2.41742749      -1.18792287      -1.12852555
Bi      -0.33285604      -0.06362487       0.39777546       2.52970804       3.54716577       3.28552765
Bi       4.13183829       4.51890548       0.21431823      -2.50446611      -4.60499747      -4.57099509
Bi       4.06551270       0.05245873       4.63428263       2.44867570      -3.30724228       4.29701860
Bi      -0.17123802       4.40712848       4.46095817      -1.83893059       1.51848489       6.29574933
O        1.98421997       4.37571616       3.92832592       0.16736898      -2.81961821      -0.42830673
O        6.11318861       4.50998181       4.40438950       0.14811779      -0.92888446       0.36191167
O        3.94049134       2.62836210       4.62890038      -1.90695373       1.28605364      -0.05813543
O        4.08479401       6.56493377       4.45897465       0.27014950      -1.80733043       0.22562778
O        4.02631212       4.37316206       2.40971499       0.98071985       2.44543681       0.87094295
O        4.24764876       4.71431922       6.26483102       1.04696438       0.97786245       0.27654954
O        6.21879681      -0.17199573       4.48226783      -1.68437613      -2.09464292      -0.53605107
O        1.41904853       0.31242572       4.91778787      -0.05322660      -0.19137397      -1.78340698
O        0.05910914       6.61965161       4.29569493      -1.90838954      -1.34856717      -0.25255595
O       -0.50617114       1.86850371       4.58429941       0.91928689      -0.23581384       1.48461599
O        0.09385218       0.08318464       2.66041991       0.60546791       1.29282145      -0.54139081
O       -0.31433563      -0.24473748       6.64139150      -0.80912085      -0.77951783       0.15978353
O        6.34787260       4.39962036       0.04546749       0.07591885       0.36838947       0.36736190
O        1.70912569       4.20823212       0.35127122      -0.08687097       0.74895191       0.15635614
O       -0.25462985       2.29398572       0.20401617      -1.96862395      -1.80777437      -0.02932644
O       -0.04124740       5.97467047       0.41362278       0.52477241      -1.88964857       1.84890060
O       -0.20165532       4.33767590       6.69641232      -1.07887742      -1.30168552      -0.38819355
O       -0.37057248       3.94512839       2.21355347      -0.06527538       1.00151559       0.49378829
O        1.85531209       0.33002473       0.17779547      -1.25141710      -1.05000243      -0.40536726
O        5.70811577       0.00923071       0.07407330       0.09137613       1.15670707       0.74295974
O        3.80930524       6.70474218       0.61288760      -2.32342340       0.95579402       0.05703322
O        3.86284219       2.08024837       0.04582021      -0.44659404      -0.18547211       1.02941383
O        3.79789622      -0.34932572       6.67435825      -2.60086372       0.99351071      -1.41126822
O        3.74913227       0.33552465       2.05421827      -0.93036882       2.95224683       3.39724714
40
Lattice="8.48738753813904 0.0 0.0 0.0 8.48738753813904 0.0 0.0 0.0 8.48738753813904" Properties=species:S:1:pos:R:3:momenta:R:3 group=md900 pbc="T T T"
Ba       1.97743285       2.10135772       2.34373025       2.93427731      -0.15238177      -1.59199800
Ba       6.47033710       6.39816550       6.54434267      -1.40741611       5.03871579       3.04053467
Ba       6.01262113       6.53641070       2.50323708      -1.41632403      -2.04515660      -1.59635191
Ba       1.69104985       2.07874989       6.62220747       1.72177313       0.91795858      -4.61382610
Ba       6.16401480       2.44414554       6.57806362      -4.06024170       0.66773426       1.31523405
Ba       1.77603682       6.42252451       2.30963318      -0.31984409      -2.21395821       4.80763094
Ba       1.82429739       6.72692480       6.48124672      -0.76836892       3.76206626      -1.17075305
Ba       6.00421685       2.19594868       2.27303325       3.89264094      -8.90675971       1.67814719
V        4.11754504       4.40572172       4.24227378       0.50326830      -2.94491696      -0.60530349
V       -0.17807715       0.23312644       4.52589459      -0.51713569      -0.54725646      -2.23372135
V       -0.24091718       4.16946594       0.45162621      -2.31164439       1.99459398      -1.18473223
V        3.93632356       0.18578923       0.25971884       2.20399660       1.41137382       0.37870596
Bi      -0.29134256       0.03866561       0.45069858      -0.41328077       4.66629571       0.71642937
Bi       4.03805012       4.42701238       0.11963638      -2.83534447      -3.23355892      -4.23927692
Bi       4.10211851       0.03306913       4.65512489       1.52409359       2.77421877      -1.63165059
Bi      -0.19388767       4.39952607       4.56451739      -0.17675383      -3.34401390       3.71882600
O        2.01200282       4.29279031       4.55383344       0.65062478       0.90012104       1.53833482
O        5.86494151       4.20936199       4.47622064      -0.60440179       0.30836833       1.81908391
O        4.00352522       2.50179366       4.71985635       1.11861114      -0.17539617      -0.40656060
O        3.52623314       6.50271054       4.33823781      -1.65016596       1.16619738      -0.00849997
O        4.29441461       4.63052008       2.57120072      -1.75385452      -1.86005517      -0.34059443
O        4.00338707       4.84722756       6.68971523      -0.88783274       0.28665930      -0.51661455
O        6.37936519      -0.16971800       4.48985924      -0.30539062       1.57678733       0.70986979
O        1.68615416       0.03400085       4.44797387      -0.42055349      -0.59268582      -0.62091924
O       -0.41035883       6.59183235       4.42938536       0.15526194       0.59442781      -0.01243996
O       -0.48371284       1.87529553       4.81175313       1.27368415       0.40099548      -1.70847890
O       -0.27393112       0.39280653       2.60848950      -1.60758057       0.24300505      -0.40782274
O       -0.28841120      -0.00216573       6.28809221       1.08574476       0.97360366       0.59754309
O        6.18422902       4.19313421       0.30371397      -1.47632432      -0.57168813      -0.01262336
O        1.48633401       3.77233540       0.34636252      -1.71998940      -1.04892301       0.43495244
O       -0.61809212       2.21608888       0.21728494       0.06916634       1.03253168       0.00842849
O       -0.35016295       6.10145790       0.41100040      -1.33127558       0.45162323      -1.02862139
O       -0.15509969       4.20469370       6.87192368      -0.13463825       1.76622160       1.35703829
O       -0.31052890       3.98573850       2.24475626       0.84251798      -0.20333543       0.35315263
O        1.66362389      -0.01963062       0.21718131      -0.24473234       0.07193150       2.29033456
O        5.59057486       0.26522645       0.53143127       1.37878072      -1.05363023       0.68958396
O        3.60118435       6.78512164       0.38139021       0.83805150      -1.14089803       0.08763935
O        3.70190045       2.28808130       0.16846705      -0.88114369       1.97730288       1.22920710
O        3.68386114       0.38644322       7.04469364       2.22386980       1.29627696       0.28708938
O        4.03644637       0.39867560       2.50716986       2.18631629      -3.08611533      -0.31969872
40
Lattice="8.48738753813904 0.0 0.0 0.0 8.48738753813904 0.0 0.0 0.0 8.48738753813904" Properties=species:S:1:pos:R:3:momenta:R:3 group=md900 pbc="T T T"
Ba       2.02350214       2.09480226       2.30526523      -0.98341009      -0.15322496      -0.10818715
Ba       6.36562406       6.55574328       6.68565399      -3.90871371       4.64277584       4.53080694
Ba       6.00661524       6.44869626       2.38420387       1.24887048      -3.90340199      -4.24071009
Ba       1.74662459       2.20397127       6.57194520       1.12658795       3.32003765       0.29441470
Ba       6.00078507       2.41601124       6.68233943      -3.64487555      -2.29363450       1.95003337
Ba       1.79082027       6.29272360       2.45523206       1.96557639      -4.70604386       2.92715302
Ba       1.80165298       6.78532909       6.44001210       0.11211045       0.49492959      -0.88636819
Ba       6.15094340       2.00645317       2.37141297       1.39484319       0.05086244       3.37780646
V        3.84191490       4.27298801       4.53167949      -3.43156901       2.43768558       3.99950044
V       -0.33808210       0.15480565       4.43427387      -1.11084908      -0.70895218      -0.11846818
V       -0.35336038       4.32443509       0.25946001       0.25628386       2.30223503      -1.35065362
V        4.08925730       0.07451776       0.38888890       2.90649238      -1.66745793       0.67688614
Bi      -0.33320981       0.17676022       0.40031804      -1.97976066       5.40604745      -6.44491625
Bi       3.93069843       4.37725023       0.00948389      -6.04213567      -0.96333557      -2.51358386
Bi       4.13905029       0.09603811       4.54256693      -0.67855837       0.56277788      -5.17213493
Bi      -0.19053943       4.32369101       4.62680142      -2.86609742      -2.23081743      -0.93568828
O        2.01899155       4.32932888       4.63798467      -1.53025627      -0.43501965       0.68743286
O        5.87101581       4.78393547       4.77820711      -0.19291807       0.84674699      -1.50567082
O        4.01901377       2.31081524       4.47993021       0.35124359      -1.41363904       1.00045560
O        3.89912905       6.42015119       4.34712421       2.22527954      -0.03445221       0.17968056
O        3.73251219       4.15804670       2.73972745      -0.52410187       0.49336970       0.67111371
O        3.97232060       4.53082780       6.40033864      -0.22250131      -2.62632797       2.25094834
O        6.32487256       0.30883935       4.94536004       1.61304528       1.63472167       2.26198703
O        1.46970341       0.18959461       4.39799982       1.07907747       0.61793594       0.76526923
O       -0.23415830       6.71247216       4.24859923       0.75392878       1.61724429       0.00483250
O       -0.14404372       2.13721909       4.48658426      -0.26073530      -0.88378703       1.07924499
O       -0.57538415       0.13789434       2.69723883      -1.08443533      -1.80585949       1.34518428
O        0.04245887       0.10307368       6.58987274       0.06138941       0.30994705      -0.19480823
O        6.10329180       4.20494207       0.24630498       0.27903176       0.38169382       0.40615386
O        1.43832256       4.32247805       0.27199148       1.04732004       2.72091023      -1.45285053
O       -0.67477782       2.28407168       0.06488839       1.23303375       0.41620355      -0.12237119
O       -0.62140591       6.07558233       0.53503284       0.34626679       0.65342279       1.44274993
O       -0.40772311       4.58383405       6.90176787      -0.10317012      -0.08892435       0.26764235
O       -0.35023944       4.29942734       2.33896528      -1.31487479       1.25096861      -0.52432866
O        2.35264950       0.11304529       0.93176344       1.11861840      -1.08916839      -0.02481725
O        6.12174604      -0.00258639       0.29805302       2.36344215      -0.50412249      -1.00493561
O        4.16127887       6.72294832       0.36064036       1.31539822      -2.55696616      -1.45836768
O        4.06644816       1.90523390       0.57664761       3.46138005      -0.75694836      -0.34808505
O        4.09653535       0.33048702       7.04051624      -0.71129028      -1.08963116       0.13301965
O        4.34655166       0.06044454       2.44035136       1.93661072       0.80111417       0.69926805
40
Lattice="8.48738753813904 0.0 0.0 0.0 8.48738753813904 0.0 0.0 0.0 8.48738753813904" Properties=species:S:1:pos:R:3:momenta:R:3 group=md900 pbc="T T T"
Ba       1.98897799       2.14091647       2.36194791      -0.62028019       3.24057183       1.30134211
Ba       6.16200127       6.65692353       6.83364411      -5.43470896      -0.59250172       0.78242516
Ba       6.10027750       6.24534762       2.25480929       3.46123410      -7.39902728      -2.99413032
Ba       1.82184608       2.29406451       6.58130319       3.02478068       2.88668989      -0.17688111
Ba       5.94191428       2.33486962       6.78492643      -0.15761416      -2.61829422       0.76680983
Ba       1.83601219       6.20812083       2.54377466      -0.76067899      -0.97919885       1.38261359
Ba       1.84524602       6.75518191       6.43966024       2.37623971      -3.12235054       3.56772437
Ba       6.17186403       2.17701953       2.48351522      -0.07647084       8.59441985       2.22468202
V        3.97587845       4.48087946       4.53471606       4.14282364      -2.18148215      -1.85289598
V       -0.35278360       0.10920503       4.55866717      -0.89293702       0.22114654       1.56245305
V       -0.33104745       4.66222603       0.25588250       1.82891225       2.03866840      -0.17978449
V        4.22295294       0.04911833       0.24516734      -1.40217426      -0.18506794      -2.41862923
Bi      -0.26898360       0.26061398       0.24796424       3.66909524       3.33420509      -4.02479517
Bi       3.83641382       4.35193201       0.13635790      -2.95267741      -1.45045544       7.54275994
Bi       4.08683269       0.08917802       4.47019908      -3.42828759       1.11405585      -0.79881917
Bi      -0.39123256       4.27907070       4.53456353     -10.18811557      -1.65551409      -4.75729302
O        1.94067796       4.47666014       4.81125032       0.65516249       1.03958682      -0.48101260
O        5.83549835       4.32326507       4.36059365      -0.89522845      -2.14600301      -0.94839311
O        4.11462317       2.33037515       4.65841445       0.36696604      -1.42601407      -1.11974916
O        3.84394114       6.25872588       4.71244847      -0.95097017       1.86908509       1.94202447
O        3.56646349       4.26458630       2.62645582      -0.28914524      -0.78618245      -1.68532460
O        3.82413155       3.98952764       6.52201960       0.54490064       0.48894442       1.88318643
O        6.43836791       0.19074410       5.06499602       0.37378902      -1.36835102      -0.71881570
O        2.07141810       0.35201257       4.31785207      -0.46020054      -0.63159121      -1.37896460
O       -0.01450923       6.84412659       4.81188472       0.30265810       0.80420583       1.10904283
O       -0.17475076       2.11338865       4.64770551       0.44226215      -0.89536707       0.16138330
O       -0.61348629       0.09698346       2.79016759       1.63457661      -0.54281742       2.06190751
O        0.06293091       0.05291656       6.70421534       0.12512323       0.25874320      -0.34772495
O        6.23200035       4.34580928       0.21644727       1.20916033       0.46741421       0.12651582
O        1.55552716       4.78871678       0.13625087       0.97793047       0.64308323       1.17665117
O        0.14471139       2.58643913       0.36890001       2.75228760       0.09803844       0.86855558
O       -0.26272408       6.48225553       0.35766110       0.43250589       1.12402844      -0.90790468
O       -0.49353492       4.48195274       6.85913764      -0.67907235      -0.41737950       0.11283385
O       -0.35012931       4.20377675       2.15543411       1.36231543       0.11520858      -0.99556869
O        2.41722788      -0.32263000       0.76599996      -0.95856846       0.19980930       1.05618997
O        6.04823106      -0.20303976       0.04374468       1.61439764       0.67653019       0.24610992
O        4.32832980       6.40622665       0.09260180      -0.40443414       1.14805684       0.06171285
O        4.47552521       1.76674246       0.34987042      -1.69985340       0.57949906      -0.19802958
O        3.67385402      -0.10015593       6.98213493      -0.14274115       0.32128834      -1.67829636
O        4.66639019      -0.07445234       2.34294556      -1.07337005      -1.91399267       0.03265888
40
Lattice="8.48738753813904 0.0 0.0 0.0 8.48738753813904 0.0 0.0 0.0 8.48738753813904" Properties=species:S:1:pos:R:3:momenta:R:3 group=md600 pbc="T T T"
Ba       1.98832163       2.18032635       2.06680424       0.29232733       3.56776441       0.34987181
Ba       6.22469522       6.49196214       6.20799619      -2.05123172       0.43384829       1.84460620
Ba       6.62496956       6.28118334       2.24425253      -3.79904179       1.13179753      -2.89121554
Ba       2.13189519       2.19124596       6.35790840       3.49065159       3.32743974      -1.38055778
Ba       6.38793090       2.04203387       6.34463895       0.56770756      -0.20088359      -0.46531658
Ba       2.25098760       6.36306923       1.96074844      -6.18861183      -1.60843531      -5.41755842
Ba       1.98086257       6.43980422       6.11482365       0.85039017       1.82879819       5.82934912
Ba       6.26152615       2.12058081       2.06740216       0.18679828       0.46361700      -3.01580135
V        4.08998266       4.33021339       4.34804929      -1.23397837      -1.29966699       2.08639197
V       -0.16073885       0.18660639       4.25834107       1.58389181      -0.51582030       0.11581151
V       -0.32470553       4.22641152      -0.18751799      -0.03643099      -0.83409705       0.24327408
V        4.27300594      -0.04487678      -0.02210941      -0.93499044       1.38854217       2.17830763
Bi      -0.02807998      -0.13356426      -0.04137519      -5.57797936      -0.51636602      -1.09619977
Bi       4.04017645       4.28080222       0.12482608      -2.28412729       0.35048044       2.58385723
Bi       4.00789021       0.09059668       4.22797025       2.01936791      -6.25799455       0.78933966
Bi      -0.14734973       4.31460350       4.13236111       5.85482353      -1.55530403      -0.06107270
O        2.40525177       4.23365753       4.23798338      -0.78089513       0.49450235      -1.51168138
O        6.29712493       4.14708026       4.53462983       1.72502186       0.59955058       0.17314380
O        4.22170591       2.34284021       4.37504656       1.05150899       0.07225477       1.40024849
O        3.95676678       6.18179339       3.98250144      -1.12380851      -1.13523205       0.17309825
O        4.17950411       4.16778473       2.34714314      -1.46487975       0.61056120       0.48389019
O        4.19555434       4.53315893       6.20750166      -0.13082087       1.16283732       0.04269218
O        6.67375440      -0.01898507       4.14905767       0.17346785      -0.14918792      -0.84565208
O        1.98863046       0.20858758       4.50014872       0.31873541       0.04016147       0.07545149
O       -0.05419769       6.53604476       4.18541663      -0.25041819      -0.65722570       0.18789622
O        0.00111387       1.93977919       4.15097914       1.99892072       1.42079939      -0.17448192
O        0.13689434      -0.26991039       2.16172758       0.20030986       0.95505809      -0.17900602
O       -0.16949425      -0.03673824       6.03688875       1.01084873      -1.00320694      -1.76916420
O        6.35564717       3.88893535      -0.15664868       0.32066878       0.41983997      -1.52041176
O        1.80750040       4.47264197      -0.03533351       0.65615782       0.63495837       0.33502664
O        0.13116318       1.95499529      -0.20453694      -0.90689093      -0.75688740       0.61208282
O       -0.39931352       5.90703326      -0.26513516       0.50891611      -0.82186355      -0.84011772
O       -0.07747921       4.01944100       6.48169746      -0.25539010      -0.28900962       0.13247555
O       -0.32115164       4.22939023       1.61557067       0.08265288      -1.54626264       1.49460126
O        2.42065457      -0.36390286      -0.13568507      -0.42569624      -0.39343205      -0.02599521
O        6.11648745       0.10564360      -0.00919151       0.18917489      -0.95503191       0.73917813
O        4.45210442       6.46767208       0.24797083       1.34881954      -0.20000769      -0.01801170
O        4.02269477       1.95513322      -0.09343783       0.97651919       0.75842770      -0.46229757
O        4.42802769      -0.10411399       6.57272188      -0.06848570       0.50803057       0.03170228
O        3.93999877       0.06691400       2.02224967      -0.58990984       0.87448112      -1.76377099
40
Lattice="8.48738753813904 0.0 0.0 0.0 8.48738753813904 0.0 0.0 0.0 8.48738753813904" Properties=species:S:1:pos:R:3:momenta:R:3 group=md600 pbc="T T T"
Ba       1.99818751       2.27900627       2.06922227      -0.48723617       1.70443395      -0.20329665
Ba       6.16028515       6.46409377       6.28258698      -0.48606594      -2.29708946       2.75997054
Ba       6.38659885       6.37098993       2.12492760      -7.85926646       2.57801986      -3.51467198
Ba       2.16732398       2.26322442       6.33845153      -0.58932305      -0.01474289      -0.87943055
Ba       6.34040927       2.03554383       6.31605038      -1.46478665      -1.28347569      -0.90726502
Ba       2.00933431       6.34282632       1.84406440      -6.70685586       0.03736235      -1.39937147
Ba       2.03920320       6.48077931       6.33875667       2.03317479       1.18865589       6.88102397
Ba       6.26248766       2.14649348       2.00761883      -0.02666921       0.68225817       0.15392932
V        4.07423157       4.23160962       4.35848045       2.37636315      -0.89321662      -1.71282443
V        0.03870718       0.07677772       4.07210819       0.08035829      -0.92256899      -2.45822330
V       -0.21221133       4.08299479      -0.21041866       3.40649805      -1.37230239      -1.33793996
V        4.16784428       0.09604969       0.04953158      -0.79708089       1.25442189      -0.60085715
Bi      -0.13633041      -0.10788817      -0.05766060      -4.40136709       2.76769354       0.02791674
Bi       4.06455917       4.31654629       0.15657279       4.13891627       2.70208060      -1.65243730
Bi       4.10939702      -0.05004324       4.21629518       5.12280842      -5.11679283      -1.19158253
Bi      -0.01225342       4.26866482       4.17145781       2.74527439      -2.53690868       3.29773252
O        2.14085505       3.98749640       4.18275716       1.71626876      -0.73893908       0.05664496
O        5.96813737       4.53676649       4.20927689      -2.38165801       1.38973653      -1.54548410
O        4.31832088       2.45894705       4.54450962      -0.93863603       1.16409613      -0.51343868
O        4.11226790       6.26021156       4.10432105       0.77865671       0.94105149      -0.72634172
O        4.18913236       3.96779337       2.24149267       0.65556637      -0.82793677       0.53898199
O        3.97105781       4.49580113       6.18913739      -1.49968051      -1.24983730       0.05446817
O        6.61246803       0.03792602       3.82137906       0.93025134      -0.41253978      -0.08434243
O        1.97417689      -0.01880670       4.25403768       0.58452262      -1.42176956      -0.97673124
O        0.19636459       6.40744575       4.09898523       1.56672449       0.64807465      -1.19192075
O       -0.03495869       1.74540121       4.22812221      -1.67595590       0.04911908       1.49901216
O        0.24029820       0.02258755       2.26503713       0.92860357      -0.32331578      -0.21955808
O       -0.10492294      -0.15123372       6.10590869      -1.57593790       0.25013400       0.91710303
O        6.46545810       3.86628737      -0.22396344      -0.06752372       0.64954459       1.05917482
O        1.88446298       4.37134749       0.09521042      -0.63318505      -0.75969135       0.30455919
O        0.12970887       2.38014211      -0.04015325       0.81695860       0.85476347       1.12775315
O       -0.28115111       5.97946028      -0.20107158       0.46742268      -0.01754783       2.37888295
O        0.19896880       3.95124015       6.46260063       0.17870059       0.68569398       0.49325318
O       -0.13151907       3.95618905       2.01104140       0.66030691       1.35428267      -0.54032507
O        2.37179330      -0.30605659      -0.25460006       0.99641819       0.66529606       0.47822728
O        6.23023561       0.12551346       0.39786113       0.33267197       0.08297324       0.07731502
O        4.56404447       6.53350811       0.21186880      -1.02160348       0.21006524      -0.16855336
O        4.19356375       1.83413715      -0.27765471      -0.52788117      -0.06795470      -1.84070839
O        4.33083124      -0.13116587       6.39103178       0.63841289      -0.69527684      -0.66268217
O        3.94221671       0.31594019       1.86781894      -0.45785177      -0.59255790       0.82972593
40
Lattice="8.48738753813904 0.0 0.0 0.0 8.48738753813904 0.0 0.0 0.0 8.48738753813904" Properties=species:S:1:pos:R:3:momenta:R:3 group=md600 pbc="T T T"
Ba       1.95455757       2.27050445       2.10007468      -0.53295536      -2.33652156       2.13016064
Ba       6.16017099       6.35915629       6.35895329       1.02175660      -4.34106747       1.63419451
Ba       6.13413277       6.43736052       2.03313302      -5.31605496       0.26941320      -2.52447390
Ba       2.11316289       2.22955374       6.30785689      -2.95781700      -2.26182071      -1.57682536
Ba       6.26784047       1.98148870       6.26695352      -1.66968367      -1.03294690      -1.11746038
Ba       1.83517241       6.32971592       1.88700305      -2.36475919      -1.06235627       4.12951065
Ba       2.08363050       6.44513066       6.50020446       0.02304996      -2.37785437       2.58689250
Ba       6.29776654       2.21166324       2.07059426       1.55003206       1.56404735       2.91024452
V        4.29044390       4.16336475       4.22742064       1.30938185       0.20290857      -1.27057275
V        0.03071268      -0.14166153       3.95916294       0.75633999      -3.48211796       1.95620168
V        0.02558274       4.13384642      -0.04857738       1.25973074       1.58831072       2.96904121
V        4.10943201       0.13125838      -0.01382985      -0.88890964       0.64930360      -3.20181037
Bi      -0.20498638      -0.05135630      -0.08747128      -1.88387067       2.75443255      -3.85514010
Bi       4.20507150       4.38891146       0.07150903       6.65043081       2.17429134      -5.70521616
Bi       4.19130099      -0.12730159       4.19419610       0.97166249      -0.77425488       1.59140484
Bi       0.03968457       4.25990323       4.20150062       2.12883091       1.89980905      -1.03303008
O        2.07987474       4.24337441       3.94163134      -0.01287625       0.25892173      -0.31720374
O        6.23343029       4.57502860       4.25231164       0.99043504      -1.30954335       0.92549233
O        4.48516559       2.33163775       4.38576002       1.25444846       0.25403520      -0.69840387
O        3.99832499       6.13042882       3.77478695      -0.76986714      -1.96654778      -0.99272777
O        4.23952349       3.92048458       2.12468979       0.30091092       0.26543446      -0.28860937
O        4.01162836       4.46992143       5.95689860       1.26581532       0.54048274      -1.54622774
O        6.71173589      -0.40055109       3.88894856      -1.59768155      -0.39223106       0.26917228
O        1.89695387       0.14491595       4.62036155      -0.13667299       2.25231917       2.16997500
O        0.21226000       6.54690393       4.09800289      -0.88408074       1.25001492       1.50345484
O       -0.15131175       1.99492587       4.39303822       0.89430057       0.15687795      -1.75263264
O        0.28261915       0.17491643       2.27296545      -0.60525236       1.69272627       0.91567194
O       -0.59813749      -0.22756108       6.33372674      -0.19133326      -0.50286156       0.48759986
O        6.80262597       4.02483081      -0.04527776       0.14896544       0.37633412       0.66649445
O        1.95303458       4.30753962       0.07319075       0.44986345      -0.15917636      -0.58361706
O        0.15239787       2.12477304       0.03848522      -0.38541130       1.29258494      -1.19560053
O       -0.13256503       6.28875187       0.25835734       0.16094005       0.32988582      -0.18274339
O        0.03830407       4.46940094       6.58707365       0.01507203       1.70154624       0.37150562
O       -0.11149204       4.27449512       2.07367478      -0.59778444      -0.54820089      -0.20808487
O        2.21783143       0.01585393      -0.37547604      -1.49252097       1.34124313      -0.84791971
O        6.07016361       0.17727926       0.02075724      -0.92745273      -0.19383328      -0.53433446
O        4.19682623       6.49327209      -0.00779765      -1.07018805      -0.08929637      -0.47505392
O        4.15522736       1.84774765      -0.43134770       0.20797626      -0.08206839       1.15582253
O        4.45819400      -0.31189802       6.36310795      -0.51168253      -0.13732476      -0.84003197
O        4.06987604       0.19492119       1.77389356       1.22184950       0.52089602       1.11282956
40
Lattice="8.48738753813904 0.0 0.0 0.0 8.48738753813904 0.0 0.0 0.0 8.48738753813904" Properties=species:S:1:pos:R:3:momenta:R:3 group=md600 pbc="T T T"
Ba       1.96856908       2.16725452       2.13651501       2.25013981      -4.22050959      -0.25428870
Ba       6.28380742       6.20877444       6.44118198       4.54871948      -3.13045159       1.87792235
Ba       5.96624257       6.43586961       1.95021328      -2.64553123      -0.05738391      -2.78396530
Ba       1.96808818       2.17251473       6.27176535      -3.67626363      -0.00898944      -0.02136633
Ba       6.26169583       1.97414427       6.22405257      -0.38058571       1.07100630      -0.74791518
Ba       1.81582602       6.32262516       2.09349560       1.06795542      -0.00584755       6.21655523
Ba       2.07276368       6.39212664       6.52806416      -1.03636493      -0.70889804      -0.12139500
Ba       6.38008376       2.20435504       2.16837615       2.18862549      -1.33276724       1.97083960
V        4.30374981       4.29177848       4.11067013      -2.05635706      -0.21426662       0.17821051
V        0.00994666       0.00494656       4.37350647      -0.75799264       3.04664788       3.04158656
V        0.04917748       4.35567769      -0.02238603       0.62809562       2.70820175      -0.58616302
V        4.01910004       0.19997050      -0.14199544      -1.55078306       1.00984373      -0.95867224
Bi      -0.19991512       0.01495191      -0.16876951       1.45854725       2.90045156      -3.01682825
Bi       4.33831897       4.35663798      -0.07810293       2.44126608      -4.89135195      -7.13082404
Bi       4.18732497      -0.15089056       4.20019680      -0.43560507       1.62631607       0.26553759
Bi       0.04289284       4.24616501       4.20279293      -0.37123670      -0.87170115       0.80416630
O        2.32028498       3.93121413       3.98376413      -0.66033997      -0.68093474       0.71701778
O        6.14222643       4.35647357       4.20131762       0.89694939       0.70931783      -1.33398641
O        4.38906132       2.28449320       4.14157557      -0.95387492      -0.38622119      -0.07924175
O        4.14993759       6.29270081       3.74372041       1.06151687       0.79677596       0.41623627
O        4.43975891       4.09185243       2.07323060       0.46606996       0.78204442       0.30413232
O        4.18486456       4.52609549       6.02119014      -0.39581777       0.48209478       0.00699094
O        6.27274410      -0.10878239       4.16744570      -0.57847614       1.09240835       0.84732135
O        1.66842601       0.13973888       4.50002050       0.08135026      -0.70277211      -1.91518665
O        0.24067107       6.55288203       4.25776415       0.07665104       0.64677662      -0.21467128
O       -0.26745706       2.09901848       4.22280222      -1.72282013      -0.72778625       1.82269537
O        0.05676088      -0.01412934       2.53819330      -1.35871722      -2.30830327      -0.49480715
O       -0.29760473      -0.04609311       6.09706120       0.75874278       1.48058304       0.82672656
O        6.39122623       4.35095486       0.01083233       0.62756152       1.75019410      -0.66680357
O        1.90857294       4.39669459       0.14636555      -1.08364616       0.88585664       1.36180980
O        0.05312713       2.50694000      -0.36517923      -1.07276573      -1.18529007      -1.20920490
O       -0.14971339       6.41931780       0.21649574       0.08588903       0.61401205      -0.62061081
O        0.16011924       4.63604455       6.70831478      -0.96273675      -0.17673128      -0.71523459
O       -0.06680261       4.18017552       1.90178552       0.37924795       0.20563058       0.12892944
O        2.20429024       0.16817540      -0.33193312      -0.19216945      -0.45133952       0.45748978
O        6.08375567      -0.12292630      -0.04886584       1.33970994      -1.06991498      -0.56281419
O        3.91412531       6.64243837       0.08248813       0.20726694       0.08061725       1.02253940
O        4.19935183       2.03713120      -0.39926909       0.54733024       0.85828097      -0.47658649
O        4.24280917      -0.12068090       6.42775278      -0.00980524       0.29840822      -0.10400068
O        3.90529857       0.26253025       1.54575136      -1.21757369       0.34504947       0.60388171
40
Lattice="8.48738753813904 0.0 0.0 0.0 8.48738753813904 0.0 0.0 0.0 8.48738753813904" Properties=species:S:1:pos:R:3:momenta:R:3 group=md600 pbc="T T T"
Ba       2.07092215       2.03802759       2.10134916       3.05623820      -0.93405682      -1.97253218
Ba       6.46991660       6.20606387       6.38437154       5.25489181       2.40899269      -5.98408664
Ba       5.96987318       6.47890811       1.89736347       1.27491930       1.63771090       0.36865564
Ba       1.86272115       2.16538092       6.29637568      -3.92421793      -1.17076664       0.38287564
Ba       6.21491321       2.03138428       6.22561503      -1.41696098       0.89640606       1.70509777
Ba       1.90779993       6.38461630       2.28160370       3.73635793       2.16353281       3.15128331
Ba       2.09720688       6.40086815       6.50194272       2.51112006      -0.58709417      -2.21665748
Ba       6.42265952       2.18839530       2.20632122      -0.20995441       0.40745281      -0.29733177
V        4.23469486       4.13183369       4.10693789       1.01545097       0.80238581      -0.55336175
V       -0.15899859       0.00138184       4.09587819      -2.81703088      -1.84705646      -2.74840753
V       -0.03798329       4.38846182      -0.06710043      -0.79274510      -2.11884691      -0.62640042
V        3.96145096       0.14590230      -0.12867503       2.31731798      -2.79591352       0.59900625
Bi      -0.19588965       0.09611925      -0.11673774      -2.36322794       3.96653930       4.82872846
Bi       4.30913328       4.24163320      -0.17676739      -4.52035755      -3.51564509      -0.95399458
Bi       4.15622123      -0.07194469       4.24003029      -1.93297197       3.45522576       2.36346682
Bi       0.01296267       4.28577230       4.23650500      -2.30354117       3.90242012       1.83235214
O        2.12698848       4.08414094       4.00518588      -0.67109978       0.77762757      -0.88652074
O        6.06242389       4.36431730       4.06277468      -0.54914881      -0.69772582       0.13055955
O        4.28050139       2.31915418       4.25656849       0.06772512      -1.66449271       0.29393919
O        3.86183597       6.29524359       4.03992206      -2.04242579       1.52101953       0.29711964
O        4.17746878       4.08971667       2.01726184      -1.28633484      -1.30423326      -0.71990519
O        4.13877524       4.44250316       5.96477573       0.45679021      -1.13426050       1.50353618
O        6.46004190      -0.09804564       4.29317215      -0.47592107      -1.23489578       0.84831584
O        1.75428979       0.36545608       4.04492007      -1.33245268       0.34923552      -1.04756053
O        0.06614842       6.54397555       4.53131779      -0.32675343      -0.01101305       0.38009954
O       -0.19479853       1.88599358       4.31563887       1.97814689       1.42515442      -2.47836967
O       -0.38992136      -0.00735453       2.35530156       0.01585568       0.76287024      -1.14456863
O       -0.09194192      -0.00148162       6.17232555       1.57698788      -1.34461370       0.41232093
O        6.50155241       4.59490700      -0.01690913      -0.57294862      -0.44478498       1.00414719
O        1.90897768       4.20900599       0.07325826       0.99607866      -1.96828349      -1.55041191
O       -0.31750270       2.48801293      -0.19557720      -0.12567330       0.02396906       2.13936065
O        0.23907545       6.24202040      -0.18461239       0.89340853       0.67843901      -0.21082061
O        0.06631403       4.35862023       6.47967849       0.67361021      -1.40574091       0.51794207
O       -0.12480658       4.14941488       2.02835964      -0.54391065       0.49691983      -0.45877106
O        2.20815924       0.14913205      -0.35869431      -0.54854702       0.40285146       0.81835891
O        6.09598932      -0.11809848      -0.20297874      -0.44961756       0.58179998      -0.25812904
O        4.02939020       6.49450493       0.10308626      -0.01173815      -0.33429061      -0.30842251
O        4.16125146       1.87113524      -0.40450554      -0.11701040      -0.84207216       0.40464071
O        4.14660273      -0.18093171       6.41075493      -0.69862209      -0.20601642      -0.09261598
O        4.15467139       0.34173494       1.65687614       2.38833057      -0.86392933      -0.50988896
40
Lattice="8.48738753813904 0.0 0.0 0.0 8.48738753813904 0.0 0.0 0.0 8.48738753813904" Properties=species:S:1:pos:R:3:momenta:R:3 group=md600 pbc="T T T"
Ba       2.16210201       2.10095229       1.99140925       1.95861808       3.32225544      -2.95251905
Ba       6.61037491       6.34955569       6.21371018       2.29206574       3.52331392      -2.01044194
Ba       6.06515766       6.50413277       1.91615959       3.95954063      -1.35356197       0.24112041
Ba       1.79609269       2.11358092       6.28981514       1.26487959      -1.51412738      -0.24791105
Ba       6.18992302       2.02504893       6.28434795       0.01465884       0.54393673       1.68311829
Ba       1.96787903       6.42025214       2.27602937      -0.23503432      -0.17666236      -3.52330735
Ba       2.18663745       6.39250629       6.35533038       1.45273811      -1.00582775      -4.66601119
Ba       6.35611493       2.25392772       2.14562899      -3.32413694       2.85664022      -2.94671778
V        4.06381550       4.16413240       4.11323732      -3.08145728       1.17277542       0.15014088
V       -0.16662048      -0.09816111       4.05001088       2.58854144       0.89983108      -0.38488900
V        0.02229979       4.14172913       0.07355560      -0.40754573      -0.61356810       3.96591950
V        4.18516200      -0.05670000      -0.07372613       0.04074331      -0.45080167       1.93765911
Bi      -0.21246752       0.13883302      -0.01645178       0.29488642      -1.02463892       2.55597018
Bi       4.15979679       4.17346218      -0.14428113      -5.80473318      -2.02173526       1.84709293
Bi       4.12861809       0.00412701       4.26443553       0.96630839       1.94641192       0.26790271
Bi      -0.05059328       4.32965931       4.23278911      -4.12052411      -1.89036754      -3.07795413
O        2.14548361       4.18648829       4.01908885      -1.03081237      -0.90542933       2.40948289
O        6.05227124       4.60011212       4.03419424       0.97639682       1.64794848       0.03320102
O        4.19568530       2.35452877       4.32581596      -0.47935176      -0.76845821       0.76876154
O        3.84363060       6.09976811       4.20196604       2.52891573      -0.61049810       0.80827567
O        4.20198750       3.86411223       2.35739464       1.08606658       0.41454260       0.14444772
O        4.17300332       4.16478326       6.08016813      -0.59016612      -0.00576928       0.82773299
O        6.44966963      -0.15939975       4.44856013       0.70681020       1.38908147       0.06387255
O        1.68031576       0.02680256       3.97734925       1.08828537       0.18240875       0.55333854
O       -0.01073301       6.62347975       4.15081985      -0.75076318      -1.14884121      -0.53392879
O       -0.30222379       2.14672670       3.91167787      -1.06261125      -0.82778703       0.41669848
O       -0.53453404      -0.12580378       2.33364628      -1.90016589      -0.36288271       0.49073876
O        0.13952897       0.08880667       6.23896435      -0.21950475       0.90304695      -1.45133234
O        6.42576775       4.38551670      -0.08606869      -1.50316195      -1.42149892      -0.93855962
O        1.80492730       3.84279493      -0.18140823      -1.16783438       0.36791040       0.34420606
O       -0.30929765       2.22793417       0.30937740       0.08988781      -0.65228788       1.37075628
O       -0.03986047       6.18127583       0.05293965      -0.67817329      -1.05878955      -0.55731962
O       -0.20536607       4.06121649       6.53123869      -1.43273080      -0.14867892      -0.70365209
O       -0.01786195       4.56785205       1.87432083       1.58633265       0.25460131      -0.32468894
O        2.41715210       0.14701412       0.32583513       1.33487374      -0.22978275       1.49971321
O        6.18321875      -0.17085617      -0.46486173       0.34972607      -0.30769918      -0.87502754
O        3.88359550       6.48501871       0.01941147      -0.01923739      -0.09666810      -0.20740703
O        4.32045614       1.82145506      -0.41778789       1.10882547      -0.64186077       0.87327248
O        4.06956291      -0.29552310       6.43838845      -0.16133524      -0.33185762       0.84792583
O        4.52448093      -0.06365873       1.77133656       0.63046859       0.35822730       0.36038248
40
Lattice="8.48738753813904 0.0 0.0 0.0 8.48738753813904 0.0 0.0 0.0 8.48738753813904" Properties=species:S:1:pos:R:3:momenta:R:3 group=nb pbc="T T T"
Ba       2.18830126       2.05657215       2.01918105       4.86958269      -3.07956977       4.60340169
Ba       6.42748365       6.34535942       6.19194173      -2.36275183       3.40592072       1.43811031
Ba       6.41141989       6.33988794       2.01373825       2.46944409       0.44145098      -1.13861893
Ba       2.11421462       2.11681155       6.56261312      -2.33180810       1.15358876       0.35222612
Ba       6.35603757       1.84878526       6.10059829       4.00039219      -1.53228128       0.03812145
Ba       2.02092828       6.26398849       2.00342519      -2.43322186      -0.63588526       3.72940934
Ba       2.08942118       6.43640658       6.46924469      -1.44097621      -0.29713307      -0.10535622
Ba       6.52787904       2.02945606       1.90589892       2.11312471      -0.38296172      -3.67166476
V        0.22293941      -0.04508772       4.13055019       0.97083182      -3.60838824      -1.62196960
V       -0.03089847       4.07391436      -0.14989138       0.33069003       1.17963107       2.70882558
V        4.24332139      -0.05215330      -0.23098510      -0.96497495      -2.93890161      -1.43807472
Nb       4.23265852       4.14381216       4.22861508       0.63315286       1.74325667      -0.89131418
Bi      -0.02259342      -0.23746721      -0.06104486       2.82607187       0.44102512      -2.22348092
Bi       4.33248184       4.29619219      -0.07559608      -3.26123382       0.06033742      -4.12230106
Bi       4.20772080      -0.04054009       4.04243467      -1.14348587      -0.31115057      -0.06861651
Bi       0.05691239       4.25648028       4.19228218       1.18144671      -1.39999423       2.67999756
O        2.25578148       4.33459756       4.33211664       0.05260864      -0.17164393       0.13163611
O        6.26000777       3.83500810       4.10220572       1.34078988       1.57516567      -0.62033728
O        3.89156172       2.08031576       4.27777779      -0.92539212      -1.75077588      -0.41580439
O        4.38256170       6.09700199       4.60047667       0.12081933       1.91042228      -0.69886510
O        4.25081167       4.12597941       2.29639811       0.29108067      -0.22474806       0.08580895
O        4.40252906       3.98444199       6.22827129       0.59756967      -0.14769996       0.80142926
O        6.59178443       0.12512652       4.05055875       0.17609010       1.27512533      -0.65276730
O        2.00659446      -0.58811004       4.18031401      -0.95762808       1.16375602       0.56425928
O       -0.20521536       6.43571453       3.84988264       0.60340899       0.41029037       0.45170121
O        0.33288770       1.68022298       4.30636405      -0.72718210      -0.97505657      -1.50001210
O        0.05672625      -0.17195572       2.24724276       0.12101782       0.52569563      -0.47454448
O       -0.11165646      -0.31852144       6.11483719       0.50908119      -2.17406563       0.32418172
O        6.53247621       4.16630942      -0.03003903      -0.10361452       0.16635210       0.68315393
O        1.91881439       4.24234849      -0.07590582      -2.36310480       0.01285059      -0.11523119
O       -0.05150766       2.33623914      -0.18825551      -0.82867571       2.09319402      -0.86891095
O       -0.07750034       6.14124874      -0.19786202       0.51345751      -0.60308670      -0.60215036
O       -0.11443621       4.23126841       6.45577650      -1.86475787      -0.60149120      -0.35380473
O       -0.02109264       4.04218179       1.74952707       1.61051693       0.06549242      -0.71246365
O        2.43415037      -0.23398717      -0.16403334      -1.43142625      -0.60843525       0.08500509
O        6.21076646      -0.07754551       0.10283388      -1.51358735      -0.37928270      -0.46859987
O        4.20733339       6.48802734      -0.42782419       0.88756258       0.29547990      -0.42878447
O        4.24388789       1.76345583       0.16425108      -0.27700707      -0.61568831       0.55281824
O        4.59622044      -0.10439169       6.58115186      -0.63134193       1.28856314       0.12204964
O        4.14277840      -0.66029394       1.90032167       0.12750428       0.40776213       0.67024322
40
Lattice="8.48738753813904 0.0 0.0 0.0 8.48738753813904 0.0 0.0 0.0 8.48738753813904" Properties=species:S:1:pos:R:3:momenta:R:3 group=nb pbc="T T T"
Ba       2.30638697       1.92398394       2.15017237       1.08599320      -3.15097760       2.47524353
Ba       6.34141612       6.41766974       6.31026339      -2.47519799       0.36476314       3.34362194
Ba       6.44973986       6.35306856       2.02263750       0.47803881      -0.61070617       0.59527688
Ba       2.05200726       2.14562483       6.48794940      -0.85603019      -0.97719518      -4.78059801
Ba       6.52323536       1.86789551       6.08808536       4.15217923       1.62139869      -0.60590468
Ba       1.96162002       6.26078883       2.11657829      -0.34528707      -0.34642497       2.23975649
Ba       2.04767137       6.37421235       6.41384610      -1.02667537      -2.35558420      -1.38263557
Ba       6.59191794       2.00302001       1.80926181       1.55749139      -0.13649778      -2.66060898
V        0.08155467      -0.25069028       4.07395748      -0.29263553       1.09335763       0.86184992
V       -0.02328903       4.26667800       0.09870836      -0.43724144       0.36815521       1.26943485
V        4.32640023      -0.12630446      -0.11397872       0.60180189       1.10594507       0.94965405
Nb       4.35228258       4.25973820       4.26162894       2.27489153      -1.36498514      -0.91364782
Bi       0.01770798      -0.17683265      -0.18016182       2.65068374       6.77473940      -3.64731957
Bi       4.29613438       4.27238671      -0.19270838       0.17469942      -3.30418879      -3.41684097
Bi       4.23599505      -0.08909305       4.01754057       0.39348637      -0.59211511       0.22864059
Bi       0.05048548       4.18856904       4.27891574      -1.40036242      -3.74998921       3.38116027
O        2.20376323       4.48340591       4.57684270      -1.18049492       1.46709631       0.97254566
O        6.26031892       4.10434089       3.96833498      -0.19940048      -0.42937885      -0.41093953
O        3.87939254       2.18135103       4.14494340       0.97585896       0.42232717      -0.88767006
O        4.46433077       6.23958046       4.28685206       0.60513599       1.43136908       0.05658486
O        4.04805240       4.26143429       2.19013594      -1.45554465       1.04577164      -0.19226163
O        4.60029211       3.80018616       6.19172162       1.07058429       0.28988141      -0.61538116
O        6.34154961       0.11844557       3.86767953       0.38479256      -1.49188871      -0.31995877
O        1.90605900      -0.25632022       4.24093727      -0.62964504      -0.91134295      -1.12776327
O       -0.17609504       6.38123423       3.98133788      -0.38376147       0.80282396      -0.71995354
O        0.10301315       1.58214882       4.09293732      -1.97318443       0.15790074       0.09621249
O        0.22933844      -0.13190420       2.06980701      -0.15278174      -1.01471209      -0.10976206
O       -0.11633506      -0.45031132       5.91596703      -1.62113574       1.20208771      -0.51551113
O        6.48650208       4.40447433       0.38206078       1.16571211       0.22745209       1.00093208
O        1.87920140       4.20614058      -0.44453834       0.67941548       0.14671360      -1.53943811
O       -0.23242623       2.16738605      -0.34592437      -0.42959054      -0.31512777       0.37026525
O        0.03266547       6.04070448       0.09664359      -0.18481906      -0.78334106       1.28303387
O       -0.43663495       4.23091675       6.36177785      -0.90503747       0.63018165       1.79747390
O        0.24896169       4.10176043       1.80323506       0.22768914      -0.61546979      -0.20695318
O        2.11949735      -0.22487494      -0.14223797       0.30462211      -0.00546768      -0.59616439
O        6.07198487      -0.32367442      -0.08329612       0.36216747      -0.49264713      -0.37759101
O        4.26332303       6.40320214      -0.35641781      -0.88659898       0.88744100       0.13787523
O        4.09787242       1.50281154       0.29175246       0.69854538       1.24083149       0.50598484
O        4.06135968       0.19056513       6.58492038      -1.58978699      -1.17941834       1.63495103
O        3.98772658      -0.43623649       1.81392813      -0.70785895      -0.01155841      -1.04819219
40
Lattice="8.48738753813904 0.0 0.0 0.0 8.48738753813904 0.0 0.0 0.0 8.48738753813904" Properties=species:S:1:pos:R:3:momenta:R:3 group=nb pbc="T T T"
Ba       2.27801361       1.84224719       2.15785357      -2.58904073      -0.36536637      -2.41047315
Ba       6.25584038       6.37190247       6.40687158      -1.30546887      -2.12259927       2.90265926
Ba       6.39302240       6.34148564       2.07632843      -1.99036902      -0.68702127       0.12377082
Ba       2.07750586       2.09041846       6.30647517       1.31795656      -1.16512705      -5.05920415
Ba       6.60012564       1.91006746       6.09020341      -2.19832718       1.89942202       2.10085131
Ba       1.97102062       6.25130160       2.14863193      -0.04291613      -0.73070098      -1.01941879
Ba       2.05002146       6.36634903       6.32418935       1.11198080       0.19025168      -1.94710227
Ba       6.64240946       1.97598352       1.77423251       1.04019702      -0.20225492       1.30680503
V       -0.09272569      -0.08994814       4.06583336      -3.98037770       1.39854529      -1.36063195
V       -0.02634434       4.20590608      -0.00829363       0.81150402      -1.52353951      -1.64097755
V        4.21144714       0.07426102      -0.01478881      -0.50360305       2.23191085      -0.75869265
Nb       4.33424331       4.20554891       4.05735025      -2.01151218      -1.01361726      -2.81554160
Bi       0.09885900       0.02539205      -0.19157614       3.20101122       8.08502186       4.02904263
Bi       4.26045572       4.18988481      -0.19613133      -3.39580440      -2.56938900       1.18507570
Bi       4.29573405      -0.08789940       4.04561448       4.06326527       0.35608552       2.08619602
Bi       0.00469830       4.11037677       4.37069491      -2.03466432      -2.24519786       3.78819691
O        2.34327548       4.26996875       4.63777637       1.31178382      -2.23688585      -0.32928742
O        6.31943025       3.99604975       3.63886863      -0.55557583      -0.05805710      -0.76152186
O        4.13495765       2.11241476       3.99258714       0.92549529      -1.32318296       0.56350409
O        4.46425953       6.17058755       4.48963281      -0.83861274      -0.30847807       0.15280039
O        3.72691506       4.46598154       2.33549376       0.82236120      -0.40120179      -0.79269088
O        4.75792845       4.03922247       6.25564066      -0.40800531       0.03466760       0.10701147
O        6.42364367      -0.21017297       3.84717643      -0.41094021      -0.19800031       0.34812068
O        1.76192784      -0.31172302       4.06741107      -1.14159265       0.79210939       0.27600657
O       -0.22817164       6.17354997       3.95236790       0.54997827      -0.68451847       1.00064310
O       -0.10738247       1.71988438       4.15077749       1.76931444      -0.06883059       0.24583079
O       -0.13255384      -0.00535429       2.02627096      -0.90089893       1.51754409       0.44379166
O       -0.31510250      -0.14435357       5.87952231       0.89075186       0.15877842      -0.29513719
O        6.70531388       4.10139362       0.28564675       0.37281685      -0.45354106      -0.51299081
O        1.88410352       4.07917387      -0.54721726       0.39905057      -1.27804164       0.21258046
O       -0.04842650       2.03846775      -0.28323417       1.12312435      -0.50669660      -1.31226272
O        0.14503774       5.95625731       0.05809322       0.80246202      -0.94434965      -0.54144556
O       -0.47821504       4.19614356       6.54839701       1.54471740      -1.06182513      -1.66815976
O        0.52448263       3.62322292       1.74590103       0.39251638       0.48134732      -1.52170549
O        2.21309640       0.19065245      -0.11467192       0.68185473       1.99540553       0.88399062
O        5.92767944      -0.09626275       0.04323515      -1.25845678       0.44088836       0.97530651
O        4.08060340       6.34263706      -0.35051682       0.67368208       0.41146760       0.70912436
O        4.44575840       1.88752319       0.26607730      -0.15250241      -1.89154500      -0.68630383
O        4.20852554       0.10439226       6.60558242       1.86101052       1.39148511      -0.13744701
O        4.07603838      -0.39691862       1.95153331       0.69605985       0.33564843      -0.47597338
40
Lattice="8.48738753813904 0.0 0.0 0.0 8.48738753813904 0.0 0.0 0.0 8.48738753813904" Properties=species:S:1:pos:R:3:momenta:R:3 group=nb pbc="T T T"
Ba       2.18738777       1.91885175       2.08389623      -1.81448074       2.87980078      -1.99593264
Ba       6.23110184       6.30220918       6.52068869       0.95323847      -2.57293777       4.31187424
Ba       6.35509104       6.32404756       1.98959509       0.53045838       0.24557878      -5.04518114
Ba       2.20680838       1.98752373       6.12505432       5.91576724      -5.26783973      -4.02285137
Ba       6.40013866       1.97435173       6.18160637      -7.35178140       2.33425771       2.83979011
Ba       1.96329055       6.28160482       2.13950802       0.30314934       1.84580179      -0.72313497
Ba       2.10109689       6.36290683       6.27871994       1.36226594      -1.33017316      -1.36741511
Ba       6.61311412       1.99357274       1.88829153      -3.78330774       1.93881568       3.68964640
V       -0.06585005      -0.09397327       4.11488304       4.74931936      -2.31642297       2.39071161
V        0.08693808       4.07277139      -0.11106402      -1.43827213       2.20207584       0.05456394
V        4.32564418       0.08080005      -0.15872108       2.37446324      -1.71412663      -0.10825110
Nb       4.27064419       4.07062390       3.99704818      -0.52284909      -2.14583703       1.37058836
Bi       0.15632337       0.10852389      -0.09852213       1.80237738       0.12579759       0.45178462
Bi       4.14573589       4.15091528      -0.17173341      -2.82562209      -0.44424522      -0.19369053
Bi       4.33419250      -0.09285349       4.09833686      -1.03814055      -0.05327809       0.31133941
Bi      -0.01918626       4.07380038       4.32569957      -0.73085854       0.46967262      -6.66086808
O        2.22694693       3.94166068       4.35902138      -0.52378565       0.37093755      -1.75710169
O        6.27395075       4.11309175       3.65035691      -0.27636510       0.68917719       0.50440617
O        4.54479764       2.11499977       3.97758897       0.77093389      -0.26325408      -1.18241697
O        4.17453803       6.10987302       4.34611076      -1.03451223       0.48149367      -0.64378060
O        3.81242088       4.22904690       2.13408412      -0.39036150      -0.09318600       1.22581201
O        4.70692672       3.91581405       6.02141314      -0.19785290      -0.46607078      -0.75663788
O        6.49665208      -0.08773041       3.97519535       0.80141244       0.54282819       0.32583552
O        1.76691012      -0.32605171       4.03270998       1.75122208       0.35154925       0.84840026
O       -0.06917835       6.41075094       4.05273993      -0.16476352       0.83611395      -0.40498427
O        0.04206709       1.84486876       4.24141160      -1.68900899      -0.30364520       0.88167842
O        0.06152149       0.07096426       2.11956943       0.78100017      -0.63905999       1.13365997
O       -0.16020290      -0.38438514       6.22633013       0.05060848      -0.15145957       0.73744045
O        6.76538743       4.13446660       0.03127986       1.19627075       0.20229724      -0.28135594
O        2.15029831       3.98423551      -0.59787074      -1.89857416       0.62179723      -0.15412165
O       -0.00965959       2.25822998      -0.62348195      -0.21190779      -1.35739085       1.70364875
O        0.28158169       5.94111912      -0.03646128       0.59453434       0.40162828      -0.79661925
O       -0.14939060       4.30227390       6.47822856       0.72701190       2.16803499       0.17071634
O        0.37000952       3.96448872       1.78323515      -0.46777711       0.11444393       0.95629543
O        2.36531418       0.14931384      -0.08761391       0.67330503      -2.00651375      -0.96081145
O        6.36024046      -0.30004157       0.04059810       0.41173247       0.30919009      -0.90261695
O        4.08903628       6.51186954      -0.30695287      -0.69775740       1.19756820      -0.20893430
O        4.32754822       1.97606786       0.35647327       0.84523323      -0.74968538       0.13369985
O        4.39405035       0.27661714       6.58273311      -0.00144124      -0.78826536       0.55865778
O        4.12387827      -0.32849914       1.95934339       1.04907006       0.23213701       1.20427384
40
Lattice="8.48738753813904 0.0 0.0 0.0 8.48738753813904 0.0 0.0 0.0 8.48738753813904" Properties=species:S:1:pos:R:3:momenta:R:3 group=nb pbc="T T T"
Ba       2.11010783       2.01064930       1.98649867      -1.87841398       3.07852145      -3.45105694
Ba       6.29711395       6.21105488       6.61396608       2.33987042      -1.01052290      -0.36848980
Ba       6.36251775       6.31838041       1.85737128       1.01350371      -0.53622567      -2.48744993
Ba       2.33057765       1.84734150       6.04742182       1.00789134      -2.50433859       2.09471984
Ba       6.26622608       2.01131085       6.27989975      -0.56676582      -0.73916305       2.51090124
Ba       2.02219317       6.36748040       2.06976323       3.52964266       1.46372976      -2.66620318
Ba       2.13000453       6.33789272       6.24749342       0.81281389       0.23560467      -0.21596143
Ba       6.47644249       2.05972258       2.02705373      -3.30375245       1.58216244       3.18596456
V        0.15961476      -0.29214488       4.29223758      -1.06645964      -0.40747979       0.88320478
V        0.09204137       4.43141395      -0.01685205       0.31090981      -0.40181108      -0.13346525
V        4.38716570      -0.15166731      -0.04950027      -0.44323031      -1.28854337       0.87591831
Nb       4.29229639       4.13996861       4.04851189      -0.78019412       4.29159107       0.99049275
Bi       0.20061218       0.03235656      -0.10559356       1.72027995      -3.93696645      -0.72250966
Bi       4.08265267       4.10772632      -0.16645865      -2.88708506      -2.58538333       0.77059309
Bi       4.35784903      -0.12883979       4.09269152       2.56678046      -3.60933871      -0.74869746
Bi      -0.00696347       4.08289479       4.17761684       1.17777982      -0.63427597      -4.81307861
O        2.25503513       3.78783446       4.16455613      -0.83080534      -0.28735105      -0.42466487
O        6.22180793       4.36169165       3.69309390       0.75779652       0.31654133       0.37928496
O        4.28631802       2.12008854       3.71078340      -0.96564663       0.22029015      -0.04546076
O        4.00993457       6.03808074       4.31577568      -0.40144106       0.71655630       0.41510913
O        3.89451543       4.42476695       1.95331422       0.65004559       0.79129743       1.36427995
O        4.22293490       3.90599997       6.01251664      -1.18068262       0.11163696      -1.76990759
O        6.49316759      -0.15018741       4.26533475      -0.71243170      -0.80923697       1.07247405
O        2.00996211       0.01832540       4.53559696      -0.55320779      -0.61969166      -0.44990272
O        0.01811279       6.41489709       3.95196524       2.00852676      -0.67817735       0.46005087
O       -0.07861142       1.95978111       4.58700557       0.53558718       2.11453545       0.22750650
O        0.27680591       0.07030725       2.42278870       1.38888623       0.93508924       0.32791364
O        0.05709527      -0.34744545       6.13907534       0.46703887      -0.24983852       0.62412230
O        6.58174687       4.41097113      -0.02970532       0.10755165       1.56842067      -0.53886376
O        1.91505503       3.91988539      -0.41462686      -0.63126139       0.49230740       0.65231998
O       -0.09884123       2.23494161      -0.02824998      -0.60842171       0.09212048       0.78717980
O        0.20632082       6.27128772       0.15933340      -1.01110424       1.61644964       1.09428296
O       -0.18757055       4.65964359       6.24450301      -0.69078530       0.35197870       0.52530414
O        0.22803914       4.03851622       1.63953455      -0.22233448       1.29738570       0.34090321
O        2.31753951      -0.03566270      -0.30447368      -0.76782028       0.34933484      -0.06698147
O        6.19136011      -0.10155095      -0.07015493       0.71846129      -0.71329693      -0.06543450
O        4.29917964       6.30907892      -0.19088857       0.77332357      -1.68047658       0.20543055
O        4.39988964       1.77207324       0.20600888      -1.14355783       0.55416262      -0.74026007
O        4.45642593       0.14404855       6.44402752      -0.11412268      -0.65647020      -0.94982475
O        4.38940518      -0.43610859       1.80728317      -0.59784391      -0.73682885      -1.27065608
40
Lattice="8.48738753813904 0.0 0.0 0.0 8.48738753813904 0.0 0.0 0.0 8.48738753813904" Properties=species:S:1:pos:R:3:momenta:R:3 group=nb pbc="T T T"
Ba       2.03466680       2.11475056       1.89526519      -2.30532847       2.59035002      -0.27454619
Ba       6.38031345       6.24853471       6.50111561       2.86775372       1.93595288      -5.41602868
Ba       6.40765188       6.27704212       1.79764466       1.59928463      -0.56738608      -1.55017284
Ba       2.27618347       1.83828566       6.15410177      -3.40896591       0.03420361       1.82593085
Ba       6.32322973       1.95614545       6.43772174       2.48266097      -0.82208979       3.34949065
Ba       2.16549249       6.39741479       1.98879665       2.93272321       0.22058288      -1.97605402
Ba       2.14721382       6.29913606       6.25350239       0.66846730      -1.91846411       0.58426754
Ba       6.41772477       2.08407743       2.15552581      -0.69303545       0.60255015       3.38147550
V        0.03534041      -0.22640484       4.15919446       0.37143265       2.66598405      -3.57258576
V       -0.08044723       4.18814817      -0.12986352      -2.61504372      -2.84830133      -2.49121849
V        4.35756147      -0.13376157      -0.12408081      -1.62228826      -0.14450416      -1.71265009
Nb       4.18971679       4.26513272       3.98993726      -2.05651758      -1.12823411      -0.11738296
Bi       0.19793178      -0.02370334      -0.10669605      -1.82765333      -3.99875193       0.39699866
Bi       4.03847991       4.07467350      -0.09732017       0.59580128       0.51641267       3.60041200
Bi       4.39290626      -0.19448185       4.09611547      -0.49440580      -1.34239940       1.05461333
Bi       0.03720406       4.11959507       4.12001668       2.04308235       2.28043016      -0.64266601
O        2.23121657       4.12322395       4.01700629       1.34808893       0.99213851       0.84988970
O        6.04592989       4.27255150       3.88669288       0.69814190       0.15226515       0.98209807
O        4.33136930       2.27767108       3.82861469      -0.18887710       0.01722288       0.60488927
O        4.08373069       6.15902555       4.27282472       1.20244997      -0.85125065      -0.42047963
O        4.07081054       4.45990365       1.98017961       0.59713213       0.00161131       0.03156079
O        4.28932223       3.86481338       6.18717590       0.34386102       0.15695376       0.28332114
O        6.82485094      -0.36701529       4.15854522      -0.36263196      -1.39869949      -1.24316763
O        2.22121339      -0.09877226       4.22209315       2.74788445       2.10843277      -0.29604079
O        0.32161447       6.50090599       4.09693185      -1.28055315      -0.52131161       0.46416425
O       -0.16359823       1.89478706       4.63056967      -0.18028495      -0.46915820      -0.17598415
O        0.08201784       0.37361253       2.43984052      -1.98420726       0.72697269      -1.25592223
O        0.05994438      -0.27497433       6.25282036       0.05856796       0.72339527       0.27220179
O        6.59379004       4.27792259       0.02091458      -2.44369865      -1.50588699       0.71045449
O        2.03226266       4.20503992      -0.27515735       0.29057762      -0.34440183       1.15768960
O       -0.27368138       2.38760848      -0.29247018       1.41216251      -0.23339338      -0.68029950
O        0.13578390       6.15102697       0.13015821       0.37427060       0.62922512      -0.48482255
O       -0.00744732       4.46443666       6.55346236       0.95415841      -1.00743395       1.38931598
O        0.06757640       4.23019958       1.94772554      -0.83785050      -1.29380670      -0.26300553
O        2.39578946      -0.06092095      -0.25359877      -1.28328954      -0.01011604      -0.39647684
O        6.15783837      -0.21739855      -0.02286891      -0.64975575       0.45172022      -0.11420496
O        4.11610493       6.35735626      -0.50460203      -0.62562072       0.26676965      -0.56272076
O        4.24612147       1.70454723       0.00079546       1.03116549       0.10127793      -0.48525076
O        4.41663614      -0.11932207       6.31110760       0.07654420       0.43489295       0.17772460
O        4.11832377      -0.44633730       1.72281670       0.64359656       1.06883570       1.07456690
40
Lattice="8.48738753813904 0.0 0.0 0.0 8.48738753813904 0.0 0.0 0.0 8.48738753813904" Properties=species:S:1:pos:R:3:momenta:R:3 group=ta pbc="T T T"
Ba       1.97876091       2.26731227       1.92787372       0.19592320      -1.22661179       0.44641504
Ba       6.15207389       6.59841736       6.10088392      -3.28339498      -4.24769387      -2.23117312
Ba       6.21673285       6.40103148       1.77546474       1.51744102       0.26464913       0.26365186
Ba       1.93553784       2.14874445       5.96859692      -0.20278264      -2.58533373       1.47130270
Ba       6.20058534       1.91686298       6.15104618      -2.23367143      -0.79532627      -1.65489982
Ba       1.81380504       6.33754561       1.77334258      -0.19674379       1.62424003      -0.63038787
Ba       1.75328836       6.27174767       6.07322322      -2.04224909      -0.02262187      -1.70717607
Ba       6.06336703       2.17850806       1.69459910      -2.87439238      -2.97590487       3.08424784
V       -0.15974166      -0.09249080       4.01762581       0.11623230       0.71225818       1.20247523
V       -0.30926584       4.13626677      -0.36531311      -0.19994320      -1.68149384      -3.28079712
V        4.04120101      -0.19834664      -0.31400310      -3.80668498      -0.13559305      -1.73451673
Ta       3.99746442       4.30210933       3.97541398       3.37803677      -0.30428829      -0.26596037
Bi      -0.17204230      -0.07579428      -0.19741691       2.87593708      -0.72092160       1.33805252
Bi       3.80932376       4.07174729      -0.24743646      -3.71170557       4.88817630       1.36792845
Bi       3.95924388       0.07272677       3.82422421       2.72794753       0.15791412       2.03756789
Bi      -0.24049000       4.06286515       3.99853508       3.75175545       2.77248543      -3.45855443
O        1.93422367       4.33062263       4.09261293       0.51898975      -0.34603140       0.13664067
O        5.85763825       3.94677701       3.72802060      -2.18413969      -0.91166325       0.34141842
O        3.87025919       2.27165791       3.61546445      -0.89874957       1.09377537      -0.31280619
O        3.87225253       6.15593108       4.35332745      -0.61723824       0.51639917      -0.32221353
O        3.87446990       4.75340762       1.97432134      -0.84838737       0.53739781      -0.44609879
O        4.08181307       3.77459192       5.97375237      -1.97878096      -0.17211971      -0.64224311
O        6.41068759       0.12041972       4.24282258      -0.02814044       0.75594638      -0.02878571
O        1.88120931       0.14177623       4.12416647       0.04547879       0.46920963      -0.27562700
O       -0.09223399       6.65791908       4.34794275      -1.46408660       0.31892979      -0.91045868
O       -0.15766308       2.13575752       4.29317318       0.32813510      -0.93827480      -0.24044661
O       -0.38974185       0.14303365       2.34335517       2.29599391       0.33472711       0.08593196
O       -0.35729736       0.18411912       6.24001927       1.95344953      -0.95062812      -0.10585015
O        6.40423244       4.19001104      -0.05786271      -0.96319619       0.34432690       0.95619195
O        1.72184230       4.33467979      -0.51830289      -0.46284298      -0.21629141      -0.98852943
O       -0.28674548       2.44191491      -0.03435755      -0.88225169       0.55688949       0.09414522
O       -0.52090072       6.25859221      -0.09998437      -0.09819565       1.08831133      -0.96563363
O       -0.49259965       4.32157717       6.30551185      -0.11356064      -2.07027003       0.71726152
O        0.04320574       4.35095292       1.80169919      -0.33234507       0.51718251       1.02668094
O        2.06987008      -0.25894700      -0.34621970       0.37379675      -0.36841781      -0.37334938
O        6.09065582       0.24935116      -0.08460748      -0.36945932       0.47227898      -0.35191542
O        4.36587958       6.55432201      -0.43635243       0.49651623      -0.27596350      -2.73563449
O        3.80561266       2.05115331       0.06020557       0.15830259       0.14910688       0.90480258
O        4.20505012      -0.00426280       6.38790725      -0.25504146       1.85039020      -0.29214190
O        3.92845121      -0.12593860       1.62057315       0.03243947       0.91093398      -1.80864688
40
Lattice="8.48738753813904 0.0 0.0 0.0 8.48738753813904 0.0 0.0 0.0 8.48738753813904" Properties=species:S:1:pos:R:3:momenta:R:3 group=ta pbc="T T T"
Ba       1.88173849       2.19837877       1.94300801      -4.40645760      -1.06242582       1.40831688
Ba       6.07680587       6.43403147       6.02172762      -0.09779237      -5.34774863      -1.06535554
Ba       6.19764624       6.37636132       1.78718840      -1.30262572      -1.81640601       1.10019766
Ba       1.93108931       2.00472525       6.07273677      -1.38609186      -4.29062064       3.97951212
Ba       6.13212055       1.96110640       6.12510975      -1.98087171       2.96971255      -0.72811147
Ba       1.76886144       6.42920215       1.76352988      -1.25263151       1.76116195       0.49503461
Ba       1.73783447       6.32877819       6.01646974       0.84564224       2.54986803      -2.34553826
Ba       6.03996441       2.04218670       1.80385201       0.18097675      -4.10825369       3.04376631
V       -0.22680167       0.10678981       4.12146257       0.53792554      -0.15574071      -0.21009858
V       -0.45520906       4.13309457      -0.32905298      -0.58315593       0.65057360       1.09922930
V        3.92547595      -0.13590879      -0.41610379       0.39162687       0.73141054      -0.56301567
Ta       4.01755801       4.26986274       3.96627461       0.01278576      -1.78546646      -1.16828591
Bi      -0.18202210      -0.02039040      -0.14317858      -3.92896273       1.91122606       0.79228314
Bi       3.80213345       4.21881429      -0.25187788       1.42279904       7.25210248      -1.00963211
Bi       4.00272709       0.04610498       3.88350560      -0.17500123      -2.07899983       3.02579420
Bi      -0.20393402       4.19324188       3.89685237      -0.51634609       8.28801528      -4.58595723
O        2.00414998       4.15019989       4.07326791       1.07406366       0.34727314      -0.65491224
O        5.97472330       4.19761035       3.76627058      -1.14737578       1.40353140       0.09622366
O        3.90713476       2.27999307       3.63620640       2.06307992      -0.73391902       0.22395964
O        4.14013720       6.15247360       4.23158536       1.72248441      -1.27479362      -0.54124405
O        3.72353515       4.53364907       2.00476448       0.23310858      -1.42108059       0.50902968
O        3.95593420       4.03427553       5.95074841       1.98967520       1.09358635       1.13957291
O        6.38756514       0.08865442       3.99395357       0.95408588      -0.10412161      -1.04672654
O        1.89315307      -0.21179132       4.01254583       1.19025583      -2.08101905      -0.44531257
O       -0.45227582       6.43595360       3.84929133      -0.21912109      -1.46721877      -1.60095994
O       -0.10631990       1.93661218       4.00332594      -0.99320558       1.39730814      -1.39818858
O        0.23319583      -0.02233768       1.93641795      -0.45233664      -0.56373027      -1.61102538
O        0.13821427      -0.14255564       5.82739203      -0.42725413      -0.09694747      -2.56887689
O        6.23714386       4.26418418       0.06645429      -0.40448060      -0.45587152      -0.46785268
O        1.43218566       4.35645107      -0.43298396       0.82258194      -0.23022836       1.30272371
O       -0.23784661       2.35599430      -0.12647582      -0.18699546      -0.33477713      -0.20688453
O       -0.36801770       6.16367278      -0.49486318      -0.28663679      -1.18260382      -0.76889843
O       -0.68435991       3.92747133       6.29606570      -1.26742955       0.37028032       0.02537406
O       -0.05481182       4.34878881       1.69936892      -0.28313995      -0.51164531      -1.38787229
O        2.07577680      -0.34492356      -0.52474177      -0.64582481       1.25989706       0.10366725
O        6.15749352      -0.03048610      -0.37839008       0.12921711      -0.99692650      -0.99232784
O        4.01153771       6.60959374      -0.84350488      -1.65328818       1.01181704      -0.63846525
O        3.94498975       2.09944618       0.00452268       0.56525360       0.02246103      -0.96057847
O        3.98059245       0.59726495       6.13046951       0.37547131      -0.09460999      -0.68453969
O        4.10143697      -0.46918269       1.51899664       0.67274094      -1.37792840      -0.02053817
40
Lattice="8.48738753813904 0.0 0.0 0.0 8.48738753813904 0.0 0.0 0.0 8.48738753813904" Properties=species:S:1:pos:R:3:momenta:R:3 group=ta pbc="T T T"
Ba       1.75782171       2.13499573       1.90951387      -1.71712927      -2.38189213      -3.31693480
Ba       6.09248087       6.25473811       6.02429980      -0.27189480      -4.02922516       1.07154869
Ba       6.17862154       6.29406028       1.84707609       0.30645737      -1.02413445       1.84788618
Ba       1.89247805       1.91660578       6.23809331      -1.35782732      -1.64624106       3.16481234
Ba       6.09392740       2.09839009       6.15812417      -0.24802347       4.18389599       1.92137755
Ba       1.77337694       6.41416651       1.77974745       1.62806650      -2.97729258      -0.77355016
Ba       1.76396523       6.38702050       5.94685617       0.38253457       2.10589935      -0.99298596
Ba       6.03744634       1.93179488       1.84884946      -0.38129103      -1.21918326       1.21713388
V       -0.17844404       0.04023484       3.75517433      -0.49760396      -1.58102577      -3.41101632
V       -0.51290516       4.25430595      -0.32739577      -0.02883620       1.21470679      -0.55428389
V        4.02792881      -0.02024091      -0.31011125       1.45783291       1.99632105      -0.39077426
Ta       4.02275484       4.22562584       3.94554607       2.24605881      -1.05621064      -0.50762143
Bi      -0.30030130       0.03190931      -0.22826688      -6.37220985       2.85215883      -5.47545074
Bi       3.86561112       4.33894501      -0.25814255       4.14254328       2.77489452      -0.59839703
Bi       4.01062703      -0.03376140       3.96317330      -0.15138907      -4.20486830       3.27558993
Bi      -0.26648723       4.39213031       3.79629121      -4.04665826       7.53305966      -3.11350204
O        2.11974771       4.29111750       4.22140210       0.38932403       0.68352970       1.52370052
O        6.11316786       4.17918251       3.55601241       0.53792679      -0.41190295      -1.15625331
O        4.17833276       2.34357005       3.72698382      -0.67388377       0.05067590      -0.13553659
O        4.19542379       6.20133606       3.96004944      -0.36756117      -0.55008401      -1.13996001
O        3.73714591       4.32844880       1.93978147      -0.62950026       0.71480754      -1.52789267
O        4.38779210       3.99728108       5.74518141       1.08783266      -0.29169401       0.00491308
O        6.32707377      -0.02711530       3.75815203      -3.04443195      -0.84774899       0.58199319
O        1.69170931      -0.31412216       3.74674662      -1.50399440       1.95679165      -0.51173037
O       -0.21066512       6.51811678       3.70600265       1.35348534      -0.06895761       0.39769992
O       -0.04801094       1.78707169       3.77782719       1.42852678       0.33044439       0.31833570
O       -0.27017279      -0.01974671       1.95943614      -0.94896304      -0.04516184      -2.07027835
O       -0.27026373       0.00450331       5.87799803      -1.10095727       0.38093078       0.12375814
O        6.29409938       4.00357143      -0.00924496       0.31415818      -0.75061413       0.34925322
O        1.76499187       4.04402005      -0.56061910      -1.05289486      -1.13157749      -1.50047513
O       -0.32847369       2.13013421      -0.34058123      -0.35580016       0.16786624      -0.88176804
O       -0.29799005       6.01719155      -0.32546195       1.14452318       0.42795645       2.20428182
O       -0.51716661       4.19227187       6.35665164       1.56099823      -0.45641256      -0.80909892
O       -0.13267943       4.13372707       1.67622626       0.80814814      -0.62298445      -0.44707812
O        2.05231158       0.35602327      -0.23438922      -1.07966397       0.32419647       1.62269159
O        5.82417024      -0.12553695      -0.52931739       0.25421592       0.21346077       0.34543207
O        3.80388373       6.50896118      -0.98989487      -0.98349518      -2.14446278       0.91701488
O        3.98692853       1.90273703      -0.24641093       1.44816635      -0.15967350      -0.80682031
O        4.02002971       0.16329890       5.96138857      -1.04027138      -0.83900803      -0.67361161
O        4.10907241      -0.36876368       1.39092120      -0.26265211       0.02762502       1.45364312
40
Lattice="8.48738753813904 0.0 0.0 0.0 8.48738753813904 0.0 0.0 0.0 8.48738753813904" Properties=species:S:1:pos:R:3:momenta:R:3 group=ta pbc="T T T"
Ba       1.74938989       2.07512107       1.77741797       0.42218283      -0.52077832      -3.99556547
Ba       6.08540338       6.25292268       6.07193364      -0.31765559       3.21343969       1.14068963
Ba       6.11811198       6.29459525       1.87193822      -1.41202745       1.76745384       0.18559630
Ba       1.79963245       1.89016224       6.31267845      -3.11567086       0.32312261      -0.41161611
Ba       6.10784604       2.16226391       6.19956870       1.49247678       0.22511100      -0.87248457
Ba       1.85482421       6.35411374       1.68892871       2.17351562       0.09410160      -4.33224972
Ba       1.77890764       6.46839544       5.97318400      -0.34738364       0.52827854       1.94412457
Ba       6.07720170       1.93100897       1.84367918       1.72600004       1.23075047      -1.00963188
V       -0.25090131       0.10231048       3.86137478      -0.91774162       2.14691731       3.14092429
V       -0.26066810       4.28889334      -0.34472849       2.65896499       1.04488916       0.86475344
V        4.03959227       0.04760272      -0.23802499      -1.34241150      -1.70757272       1.09941355
Ta       4.05214665       4.17304419       3.88715092      -1.52328420      -4.29179130      -2.60309741
Bi      -0.38231994       0.07536504      -0.45699005      -1.97490242      -0.22835854      -8.43777057
Bi       3.90955135       4.34457153      -0.32209885       0.00886087      -1.67315843      -3.24151735
Bi       4.00388501      -0.11922437       3.97372646      -1.47564116      -3.45028022      -1.47045887
Bi      -0.30779439       4.40326666       3.75022189       0.00278026      -4.86779553      -1.07766849
O        2.10017882       4.33597668       4.36111061      -1.05662595      -0.52714411       0.70812086
O        5.99053499       4.12877071       3.36912356       0.87856203      -0.09282146       0.32337548
O        3.84640486       2.21977948       3.62585161      -0.50075540       0.83668824       0.63081148
O        4.14118115       6.17323500       3.93330659      -0.40997216       1.27623262       1.21494316
O        3.52993717       4.34361075       1.97997165       0.19590300      -0.88417683      -0.17049501
O        4.68626817       4.24573045       5.73308357       0.00749984       0.25439397       0.05627236
O        6.19928738      -0.16302154       3.94334147       0.17642201       0.79230633       0.81314102
O        1.61829908       0.04938705       3.72331041       1.02558562       0.25072862      -0.14835033
O       -0.24919757       6.53225969       3.74565997      -0.47048484      -0.83800383      -0.62212806
O       -0.42677298       1.92519560       3.91091423      -3.12234041       0.45626342       0.78921988
O       -0.71328422       0.00362832       1.99006454      -0.75667359       0.74655740       0.31860295
O       -0.47606101      -0.26801413       5.57622022       0.57544207      -0.66859786       0.84077867
O        6.35268882       4.43689521      -0.02421725       0.61067137       2.28676459       0.25651816
O        1.75279804       4.04320876      -0.64136675      -0.12614682       0.22671101       0.22932986
O       -0.48017973       2.24012914      -0.31155482       0.02437817       0.19748563       0.53555846
O       -0.18862480       5.98158421       0.00601889       0.56692052      -0.17431346      -0.68294325
O       -0.65179527       4.39063158       6.37207914      -0.78380762       1.26780660       0.01855659
O        0.21917728       4.12332324       1.75555204       0.67219466      -0.21246819       0.51019482
O        1.88504049      -0.06479075      -0.01833592      -0.19873662      -0.23624325      -0.07311021
O        5.87843497      -0.35908267      -0.32976203       0.21159251      -1.55163128       0.28647921
O        3.77157308       6.45892325      -0.27103184       0.82551731       0.13605581       2.75036726
O        4.32112127       1.93672927      -0.35282971      -0.26126649       0.75512166       0.62458644
O        3.54282895      -0.11344851       6.52955370      -1.10394480      -0.83720236       0.44533946
O        3.99729474      -0.06255165       1.59142003       0.04934575       2.25090752       1.75836019
40
Lattice="8.48738753813904 0.0 0.0 0.0 8.48738753813904 0.0 0.0 0.0 8.48738753813904" Properties=species:S:1:pos:R:3:momenta:R:3 group=ta pbc="T T T"
Ba       1.78912701       2.02350834       1.65285030       1.27992298      -2.64924820      -2.55370316
Ba       6.09977279       6.39797186       6.11497748       0.88594609       4.07042420      -0.37596434
Ba       6.08019243       6.41455474       1.85638360      -0.97976428       3.83197329      -1.28608632
Ba       1.74597481       1.94191900       6.21805699      -0.28176240       1.92707217      -4.38980014
Ba       6.16481598       2.23583538       6.15680129       1.70778755       2.80852996      -1.16848143
Ba       1.89044194       6.40118071       1.58787010      -1.57526604       0.97969403      -0.01324033
Ba       1.75139974       6.43861204       6.04215322       0.99026134      -1.80655506       0.55804607
Ba       6.09513341       1.98923353       1.79661851      -0.76605425       2.74455962      -2.29895420
V       -0.43735130       0.12503588       3.82538370      -2.58628824      -1.67387523      -0.46275596
V       -0.28961913       4.46884753      -0.39726160      -1.93938538       0.69454464      -1.04146334
V        3.89825942      -0.05275021      -0.23940354      -2.00391694       0.85951236      -3.01126480
Ta       3.91050424       4.10495018       3.83901468      -6.85766925      -2.14398283       1.95002529
Bi      -0.42960740       0.01574230      -0.48875784      -0.70941774      -2.99107974       5.08235179
Bi       3.94169987       4.25642511      -0.33219169       1.25625943      -5.16540085       0.46386069
Bi       3.98678057      -0.14506779       3.94951597      -1.97897404       3.63611546       0.43894559
Bi      -0.24464632       4.25744074       3.76556505       3.23688818      -6.30139598       1.94263299
O        2.02487401       4.16080723       4.35878018      -1.42983827      -0.35321845      -1.21057206
O        5.88090027       4.16670358       3.54784535       0.20668325       0.25702567       0.52168342
O        3.97158831       2.03445860       4.15003362       0.81142100      -1.17691839       1.42130098
O        3.89421881       6.02235073       3.93696216      -0.37027769      -0.87287645      -1.05768976
O        3.65505974       4.02685179       1.93693968      -0.27127804      -1.37237244       0.97553881
O        4.39895862       4.17206705       5.88748392      -0.56717068       0.42373159       1.25230472
O        6.07743635       0.03017891       4.39593065       1.30574218      -1.22728212       1.43435667
O        1.34217650       0.27037054       3.91951247       1.94657269       0.98835523       0.92754377
O       -0.39532167       6.49628348       3.64785255      -0.60667529       0.76290450       1.13491108
O       -0.69001890       1.95380342       4.27476649       0.91852025       1.18062689       0.23313105
O       -0.44652916       0.17557495       2.14307551      -0.42487133       0.55805095      -0.85765123
O        0.05660855      -0.15445782       5.93812349       0.38576837       0.18229676      -0.57316728
O        6.45625194       4.44884098       0.09859860       0.31748911      -0.64392739      -0.24302230
O        1.70646507       4.12088292      -0.70033204       2.07671956       0.92335674       0.58670359
O       -0.37525163       2.35690341      -0.40095748       0.17405196       0.09858291      -0.90167930
O        0.17438300       6.34448671      -0.38175088      -0.48808593      -0.23490064      -1.33884851
O       -0.46419517       4.30964098       6.26934859       0.42690223       0.34919536      -0.76517778
O        0.14225281       4.24664770       1.59639391      -0.96564981       0.89413077      -0.35662280
O        1.79736196       0.23532999      -0.15186885      -0.06582271       0.28491882      -0.32857463
O        5.67040899      -0.24931797      -0.46779758       0.72878904       1.18150109      -0.43116751
O        3.87788916       6.52306701       0.20687289      -0.16993321      -0.48511385      -0.55181614
O        3.91880402       1.71742069      -0.25500397      -1.61024664       0.49968577       0.18330767
O        3.75723369      -0.11914682       6.43622611       0.94638931      -0.85233468      -0.67022324
O        4.13068843       0.19618578       1.74679692       0.78030296      -0.59805832      -0.16481819
40
Lattice="8.48738753813904 0.0 0.0 0.0 8.48738753813904 0.0 0.0 0.0 8.48738753813904" Properties=species:S:1:pos:R:3:momenta:R:3 group=ta pbc="T T T"
Ba       1.80976720       1.94008903       1.63040915      -0.69293335      -2.23968011       0.93700411
Ba       6.11295897       6.46596889       6.04369078       0.13593007       1.31481024      -2.03498646
Ba       6.05643151       6.54193062       1.76047185      -1.64840918       3.42091523      -2.98004722
Ba       1.76397360       2.03605124       5.98672170       0.74477370       2.74669622      -5.93398615
Ba       6.14363720       2.30970287       6.09624004      -0.61979727       1.79937978      -3.45256388
Ba       1.78189685       6.43057353       1.67468619      -2.66969738       0.34366488       3.64491552
Ba       1.77176251       6.31352149       6.03059640       0.19979009      -4.99954403      -0.57787710
Ba       6.05692775       2.13760424       1.71024938      -0.86025627       4.39909865      -1.62829329
V       -0.38605887       0.02647138       3.94989333       1.27317511       0.48533258       0.60151688
V       -0.32299584       4.21078838      -0.44334816       1.40829615      -3.81517664       0.47023495
V        3.83064178       0.12595246      -0.48375042       2.37558158      -1.59818382      -0.79026277
Ta       3.84048740       4.04309537       3.99614627       2.24188415       0.53527590       6.88326938
Bi      -0.41219612      -0.02883195      -0.35728145       1.10053856      -1.57109578       5.13439903
Bi       3.96329725       4.16910406      -0.33020233      -0.67040541       0.13748566       1.33408949
Bi       3.89031479      -0.02308481       3.96539625      -5.10385396       5.96433316      -0.82932874
Bi      -0.22565554       4.15896092       3.78593300      -2.81599537      -4.08892703      -0.53240799
O        1.91459503       3.88450427       4.13667753      -0.71586865      -1.03437919       0.89476736
O        5.84112670       4.08173529       3.72754464       0.48137179       0.00421966       0.53801001
O        4.19198341       2.20465262       4.53808057      -0.19103324      -1.19656798       1.37166824
O        3.80332670       6.12883104       3.59481944      -0.58787169       0.41160422      -0.44111315
O        3.64672649       3.52112066       2.08037917       1.10436882      -1.01171660      -0.40112436
O        4.10676863       4.44746846       5.92727466      -0.88686812       1.45423257      -0.95378732
O        6.26180976       0.05794939       4.18252942      -1.13819219       2.20466481      -1.04185938
O        1.85178504       0.08954680       3.72535429       0.17706664      -1.58809276      -1.11833143
O       -0.17561084       6.74364683       3.87913747       2.69690036      -0.92027010      -0.38894635
O       -0.26766290       1.96178244       3.87855984       1.36872422      -0.32712955      -0.78102094
O       -0.66004669       0.18314045       2.11625191       0.62402107      -1.43094759       0.55724632
O       -0.22691690       0.02768956       5.99667071      -0.26312661       1.29581907      -0.35597454
O        6.31054953       4.35154832      -0.10928264      -1.22500972      -1.60572262      -0.70003557
O        1.65138649       4.35921446      -0.50540512      -2.26666834       0.07644650       0.24117221
O       -0.20213985       2.43325987      -0.53225906       0.64040253       0.17677251       0.24242333
O       -0.27946570       6.19545182      -0.35045205      -1.74753632       1.61280639       1.25876546
O       -0.48986964       4.41352673       6.16673419      -0.24579435      -0.84127262      -0.87361698
O        0.10275030       4.30145977       1.63944714      -0.14116043      -1.05843518       0.78787638
O        2.16595349      -0.25780056      -0.06436513       0.07608908      -1.51171583       0.39981937
O        5.94521804       0.21019805      -0.46855846       0.31048769       1.89588033      -0.60098968
O        3.99495103       6.42781391      -0.27900765       1.61679406      -0.67410731      -0.87349933
O        3.82869625       1.82647513      -0.49580463       0.65766095      -0.39823998      -2.13011290
O        3.70312013      -0.44307970       6.31540691      -0.14778183       0.59897308      -1.31415330
O        4.17682328       0.02742823       1.77830035      -0.27530707       0.65956365      -0.85910466
