Ba2BiVO6 Fm-3m, 40-atom cubic cell, PBE+U
 1.0000000000000000
     8.4873875381390391    0.0000000000000000    0.0000000000000000
     0.0000000000000000    8.4873875381390391    0.0000000000000000
     0.0000000000000000    0.0000000000000000    8.4873875381390391
 Ba  V   Bi  O  
   8   4   4  24
Direct
  0.2500000000000000  0.2500000000000000  0.2500000000000000
  0.7500000000000000  0.7500000000000000  0.7500000000000000
  0.7500000000000000  0.7500000000000000  0.2500000000000000
  0.2500000000000001  0.2500000000000001  0.7500000000000000
  0.7500000000000000  0.2500000000000000  0.7500000000000000
  0.2500000000000001  0.7500000000000000  0.2500000000000001
  0.2500000000000000  0.7500000000000000  0.7500000000000000
  0.7500000000000000  0.2500000000000001  0.2500000000000001
  0.4999999999999999  0.4999999999999999  0.4999999999999999
  0.0000000000000001  0.0000000000000001  0.4999999999999999
  0.0000000000000001  0.4999999999999999  0.0000000000000001
  0.4999999999999999  0.0000000000000001  0.0000000000000001
  0.0000000000000000  0.0000000000000000  0.0000000000000000
  0.4999999999999999  0.4999999999999999  0.0000000000000000
  0.4999999999999999  0.0000000000000000  0.4999999999999999
  0.0000000000000000  0.4999999999999999  0.4999999999999999
  0.2741899979848483  0.4999999999999999  0.4999999999999999
  0.7258100020151517  0.4999999999999999  0.4999999999999999
  0.4999999999999999  0.2741899979848483  0.4999999999999999
  0.4999999999999999  0.7258100020151517  0.4999999999999999
  0.4999999999999999  0.4999999999999999  0.2741899979848483
  0.4999999999999999  0.4999999999999999  0.7258100020151517
  0.7741899979848483  0.0000000000000001  0.4999999999999999
  0.2258100020151517  0.0000000000000001  0.4999999999999999
  0.0000000000000001  0.7741899979848483  0.4999999999999999
  0.0000000000000001  0.2258100020151517  0.4999999999999999
  0.0000000000000001  0.0000000000000001  0.2741899979848483
  0.0000000000000001  0.0000000000000001  0.7258100020151517
  0.7741899979848483  0.4999999999999999  0.0000000000000001
  0.2258100020151517  0.4999999999999999  0.0000000000000001
  0.0000000000000001  0.2741899979848483  0.0000000000000001
  0.0000000000000001  0.7258100020151517  0.0000000000000001
  0.0000000000000001  0.4999999999999999  0.7741899979848483
  0.0000000000000001  0.4999999999999999  0.2258100020151517
  0.2741899979848483  0.0000000000000001  0.0000000000000001
  0.7258100020151517  0.0000000000000001  0.0000000000000001
  0.4999999999999999  0.7741899979848483  0.0000000000000001
  0.4999999999999999  0.2258100020151517  0.0000000000000001
  0.4999999999999999  0.0000000000000001  0.7741899979848483
  0.4999999999999999  0.0000000000000001  0.2258100020151517
