Ba2BiTaO6 relaxed with MACE-MP-0 (from the cubic cell)
 1.0000000000000000
     8.6914170859294213    0.0000000000000000    0.0000000000000000
     0.0000000000000000    8.6914170859297410   -0.0000000000002706
     0.0000000000000000   -0.0000000000000720    8.6914170859289150
 Ba  Ta  Bi  O  
   8   4   4  24
Direct
  0.2499999998294461  0.2499999998294390  0.2499999998294684
  0.7499999994883382  0.7499999994883169  0.7499999994884052
  0.7499999994883382  0.7499999994883126  0.2499999998294840
  0.2499999998294461  0.2499999998294431  0.7499999994883897
  0.7499999994883382  0.2499999998294431  0.7499999994883897
  0.2499999998294461  0.7499999994883126  0.2499999998294840
  0.2499999998294461  0.7499999994883169  0.7499999994884052
  0.7499999994883382  0.2499999998294390  0.2499999998294684
  0.4999999996588922  0.4999999996588780  0.4999999996589369
 -0.0000000000000000  0.0000000000000041  0.4999999996589213
 -0.0000000000000000  0.4999999996588738  0.0000000000000156
  0.4999999996588922 -0.0000000000000000 -0.0000000000000000
 -0.0000000000000000  0.0000000000000000 -0.0000000000000000
  0.4999999996588922  0.4999999996588738  0.0000000000000156
  0.4999999996588922  0.0000000000000041  0.4999999996589213
 -0.0000000000000000  0.4999999996588780  0.4999999996589369
  0.2697886416929735  0.4999999996588780  0.4999999996589369
  0.7302113576248108  0.4999999996588780  0.4999999996589369
  0.4999999996588922  0.2697886416929677  0.4999999996589297
  0.4999999996588922  0.7302113576247882  0.4999999996589440
  0.4999999996588922  0.4999999996588760  0.2697886416930048
  0.4999999996588922  0.4999999996588798  0.7302113576248689
  0.7697886425024260  0.0000000000000041  0.4999999996589213
  0.2302113579659187  0.0000000000000041  0.4999999996589213
 -0.0000000000000000  0.7697886425024018  0.4999999996589453
 -0.0000000000000000  0.2302113579659144  0.4999999996589285
 -0.0000000000000000  0.0000000000000022  0.2697886416929892
 -0.0000000000000000  0.0000000000000061  0.7302113576248533
  0.7697886425024260  0.4999999996588738  0.0000000000000156
  0.2302113579659187  0.4999999996588738  0.0000000000000156
 -0.0000000000000000  0.2697886416929635  0.0000000000000084
 -0.0000000000000000  0.7302113576247840  0.0000000000000227
 -0.0000000000000000  0.4999999996588801  0.7697886425024862
 -0.0000000000000000  0.4999999996588758  0.2302113579659477
  0.2697886416929735 -0.0000000000000000 -0.0000000000000000
  0.7302113576248108 -0.0000000000000000 -0.0000000000000000
  0.4999999996588922  0.7697886425023976  0.0000000000000240
  0.4999999996588922  0.2302113579659102  0.0000000000000072
  0.4999999996588922  0.0000000000000064  0.7697886425024708
  0.4999999996588922  0.0000000000000019  0.2302113579659321
