Ba2BiVO6 2x2x2 primitive cell with one V -> Ta, MACE-MP-0
 1.0000000000000000
     0.0000000000000000    8.5020973659135546    8.5020973659135475
     8.5020973659135350    0.0000000000000000    8.5020973659135350
     8.5020973659135386    8.5020973659135528    0.0000000000000000
 Ba  V   Ta  Bi  O  
  16   7   1   8  48
Direct
  0.1231100368476587  0.1231100368476592  0.1231100368476588
  0.3768899628045708  0.3768899628045723  0.3768899628045712
  0.1231100368476583  0.1231100368476596  0.6306698887614837
  0.3768899628045705  0.3768899628045729  0.8693301113713867
  0.1231100368476587  0.6306698887614847  0.1231100368476588
  0.3768899628045707  0.8693301113713885  0.3768899628045712
  0.1245620138679983  0.6251459953057020  0.6251459953057007
  0.3754379863723205  0.8748540042390821  0.8748540042390799
  0.6306698887614832  0.1231100368476594  0.1231100368476586
  0.8693301113713862  0.3768899628045724  0.3768899628045710
  0.6251459953056998  0.1245620138679999  0.6251459953057005
  0.8748540042390789  0.3754379863723230  0.8748540042390797
  0.6251459953057001  0.6251459953057018  0.1245620138679987
  0.8748540042390793  0.8748540042390820  0.3754379863723209
  0.6251459953056999  0.6251459953057024  0.6251459953057004
  0.8748540042390790  0.8748540042390823  0.8748540042390796
  0.2499999998261143  0.2499999998261161  0.7500000006545254
  0.2499999998261147  0.7500000006545268  0.2499999998261150
  0.2500000004142044  0.7500000000664371  0.7500000000664353
  0.7500000006545249  0.2499999998261159  0.2499999998261148
  0.7500000000664344  0.2500000004142065  0.7500000000664351
  0.7500000000664347  0.7500000000664369  0.2500000004142049
  0.7500000000664344  0.7500000000664373  0.7500000000664351
  0.2499999998261147  0.2499999998261157  0.2499999998261150
 -0.0000000000000000  0.0000000000000000  0.0000000000000000
 -0.0008803010219582 -0.0008803010219574  0.5008803006741881
 -0.0008803010219580  0.5008803006741888 -0.0008803010219580
 -0.0008803010219582  0.5008803006741893  0.5008803006741881
  0.5008803006741880 -0.0008803010219578 -0.0008803010219582
  0.5008803006741874 -0.0008803010219573  0.5008803006741880
  0.5008803006741879  0.5008803006741890 -0.0008803010219581
  0.5000000002403197  0.5000000002403215  0.5000000002403201
  0.3669527847926227  0.1330472148596076  0.1330472148596070
  0.1330472142715166  0.3669527853807140  0.3669527853807131
  0.1330472148596070  0.3669527847926236  0.1330472148596072
  0.3669527853807126  0.1330472142715177  0.3669527853807130
  0.1330472148596068  0.1330472148596077  0.3669527847926229
  0.3669527853807129  0.3669527853807140  0.1330472142715169
  0.3633500519983820  0.1366499476538482  0.6369928591635314
  0.1366499476538467  0.3633500519983840  0.8630071409693392
  0.1366499476538467  0.3633500519983838  0.6369928591635315
  0.3633500519983819  0.1366499476538484  0.8630071409693392
  0.1362406245362413  0.1362406245362430  0.8637593759443986
  0.3637593757040776  0.3637593757040795  0.6362406247765622
  0.3633500519983824  0.6369928591635327  0.1366499476538473
  0.1366499476538471  0.8630071409693407  0.3633500519983827
  0.1362406245362419  0.8637593759443999  0.1362406245362420
  0.3637593757040777  0.6362406247765634  0.3637593757040782
  0.1366499476538471  0.6369928591635327  0.3633500519983827
  0.3633500519983824  0.8630071409693407  0.1366499476538473
  0.3637593762921679  0.6362406241884738  0.6362406241884719
  0.1362406251243314  0.8637593753563104  0.8637593753563084
  0.1366499476538467  0.8630071409693409  0.6369928591635315
  0.3633500519983818  0.6369928591635331  0.8630071409693393
  0.1366499476538464  0.6369928591635330  0.8630071409693394
  0.3633500519983820  0.8630071409693411  0.6369928591635314
  0.8637593759443980  0.1362406245362427  0.1362406245362418
  0.6362406247765616  0.3637593757040793  0.3637593757040781
  0.6369928591635310  0.3633500519983836  0.1366499476538472
  0.8630071409693385  0.1366499476538483  0.3633500519983824
  0.6369928591635309  0.1366499476538482  0.3633500519983825
  0.8630071409693387  0.3633500519983837  0.1366499476538471
  0.8630071409693382  0.1366499476538483  0.6369928591635313
  0.6369928591635305  0.3633500519983842  0.8630071409693391
  0.6362406241884714  0.3637593762921697  0.6362406241884719
  0.8637593753563072  0.1362406251243334  0.8637593753563082
  0.6369928591635307  0.1366499476538487  0.8630071409693389
  0.8630071409693383  0.3633500519983840  0.6369928591635312
  0.8630071409693387  0.6369928591635329  0.1366499476538471
  0.6369928591635309  0.8630071409693409  0.3633500519983825
  0.6369928591635310  0.8630071409693407  0.1366499476538472
  0.8630071409693384  0.6369928591635329  0.3633500519983825
  0.6362406241884716  0.6362406241884736  0.3637593762921681
  0.8637593753563080  0.8637593753563101  0.1362406251243318
  0.8627551155092923  0.6372448846235793  0.6372448846235772
  0.6372448846235763  0.8627551155092954  0.8627551155092932
  0.6372448846235765  0.8627551155092951  0.6372448846235774
  0.8627551155092920  0.6372448846235792  0.8627551155092932
  0.6372448846235764  0.6372448846235793  0.8627551155092931
  0.8627551155092924  0.8627551155092954  0.6372448846235771
