Ba2BiNbO6 relaxed with MACE-MP-0 (from the cubic cell)
 1.0000000000000000
     8.7032914021314589    0.0000000000000000   -0.0000000000000000
     0.0000000000000000    8.7032914021309384   -0.0000000000004655
     0.0000000000000000   -0.0000000000003149    8.7032914021307164
 Ba  Nb  Bi  O  
   8   4   4  24
Direct
  0.2499999999387743  0.2499999999387983  0.2499999999388090
  0.7499999998163230  0.7499999998163950  0.7499999998164272
  0.7499999998163230  0.7499999998163769  0.2499999999388358
  0.2499999999387743  0.2499999999388164  0.7499999998164004
  0.7499999998163230  0.2499999999388164  0.7499999998164004
  0.2499999999387743  0.7499999998163769  0.2499999999388358
  0.2499999999387743  0.7499999998163950  0.7499999998164272
  0.7499999998163230  0.2499999999387983  0.2499999999388090
  0.4999999998775486  0.4999999998775966  0.4999999998776181
 -0.0000000000000000  0.0000000000000181  0.4999999998775914
 -0.0000000000000000  0.4999999998775785  0.0000000000000267
  0.4999999998775486 -0.0000000000000000  0.0000000000000000
  0.0000000000000000  0.0000000000000000  0.0000000000000000
  0.4999999998775486  0.4999999998775785  0.0000000000000267
  0.4999999998775486  0.0000000000000181  0.4999999998775914
 -0.0000000000000000  0.4999999998775966  0.4999999998776181
  0.2683457811636678  0.4999999998775966  0.4999999998776181
  0.7316542185914295  0.4999999998775966  0.4999999998776181
  0.4999999998775486  0.2683457811637019  0.4999999998776057
  0.4999999998775486  0.7316542185914914  0.4999999998776304
  0.4999999998775486  0.4999999998775883  0.2683457811637174
  0.4999999998775486  0.4999999998776050  0.7316542185915187
  0.7683457810412165  0.0000000000000181  0.4999999998775914
  0.2316542187138809  0.0000000000000181  0.4999999998775914
 -0.0000000000000000  0.7683457810412805  0.4999999998776324
 -0.0000000000000000  0.2316542187139128  0.4999999998776037
 -0.0000000000000000  0.0000000000000097  0.2683457811636907
 -0.0000000000000000  0.0000000000000265  0.7316542185914920
  0.7683457810412165  0.4999999998775785  0.0000000000000267
  0.2316542187138809  0.4999999998775785  0.0000000000000267
 -0.0000000000000000  0.2683457811636838  0.0000000000000144
 -0.0000000000000000  0.7316542185914733  0.0000000000000391
 -0.0000000000000000  0.4999999998776063  0.7683457810413088
 -0.0000000000000000  0.4999999998775869  0.2316542187139274
  0.2683457811636678 -0.0000000000000000  0.0000000000000000
  0.7316542185914295 -0.0000000000000000  0.0000000000000000
  0.4999999998775486  0.7683457810412624  0.0000000000000411
  0.4999999998775486  0.2316542187138947  0.0000000000000124
  0.4999999998775486  0.0000000000000278  0.7683457810412821
  0.4999999998775486  0.0000000000000084  0.2316542187139007
